&inputph
           verbosity = 'high'
              tr2_ph = 1e-12
              prefix = 'MoS2'
            fildvscf = 'MoS2-dvscf'
	      fildyn = 'MoS2.dyn.xml',
     electron_phonon = 'dvscf',
               epsil = .true.
               trans = .true.
               ldisp = .false.
               qplot = .true.
             recover = .true.
	alpha_mix(1) = 0.1
/
7
-0.000000000 -0.000000000 -0.000000000 1
-0.000000003 -0.192450106 -0.000000000 1
-0.000000006 -0.384900212 -0.000000000 1
0.000000009 0.577350318 -0.000000000 1
-0.166666687 -0.288675159 -0.000000000 1
-0.166666701 -0.481125176 -0.000000000 1
-0.333333373 -0.577350318 -0.000000000 1
