
     Program PWSCF v.7.5 starts on 13Mar2026 at  9:22:45 
        Git branch: HEAD
        Last git commit: 770a0b2d12928a67048e2f3da8d10d057e52179e
        Last git commit date: Tue Aug 19 09:57:12 2025 +0000
        Last git commit subject: Merge branch 'QE-7.5-RC' into 'master'

     This program is part of the open-source Quantum ESPRESSO suite
     for quantum simulation of materials; please cite
         "P. Giannozzi et al., J. Phys.:Condens. Matter 21 395502 (2009);
         "P. Giannozzi et al., J. Phys.:Condens. Matter 29 465901 (2017);
         "P. Giannozzi et al., J. Chem. Phys. 152 154105 (2020);
          URL http://www.quantum-espresso.org", 
     in publications or presentations arising from this work. More details at
     http://www.quantum-espresso.org/quote

     Parallel version (MPI), running on    64 processors

     MPI processes distributed on     4 nodes
     244072 MiB available memory on the printing compute node when the environment starts

     Waiting for input...
     Reading input from standard input

     Current dimensions of program PWSCF are:
     Max number of different atomic species (ntypx) = 10
     Max number of k-points (npk) =  40000
     Max angular momentum in pseudopotentials (lmaxx) =  4

     Atomic positions and unit cell read from directory:
     ./tmp/MoS2.save/


     R & G space division:  proc/nbgrp/npool/nimage =      64
     Subspace diagonalization in iterative solution of the eigenvalue problem:
     one sub-group per band group will be used
     custom distributed-memory algorithm (size of sub-group:  2*  2 procs)


     Parallelization info
     --------------------
     sticks:   dense  smooth     PW     G-vecs:    dense   smooth      PW
     Min          12      12      3                 1828     1828     275
     Max          13      13      4                 1857     1857     314
     Sum         769     769    223               118115   118115   18465

     Using Slab Decomposition



     bravais-lattice index     =            4
     lattice parameter (alat)  =       5.9418  a.u.
     unit-cell volume          =    1222.9839 (a.u.)^3
     number of atoms/cell      =            3
     number of atomic types    =            2
     number of electrons       =        26.00
     number of Kohn-Sham states=          200
     kinetic-energy cutoff     =      80.0000  Ry
     charge density cutoff     =     320.0000  Ry
     Exchange-correlation= PBESOL
                           (   1   4  10   8   0   0   0)

     celldm(1)=   5.941759  celldm(2)=   0.000000  celldm(3)=   6.732013
     celldm(4)=   0.000000  celldm(5)=   0.000000  celldm(6)=   0.000000

     crystal axes: (cart. coord. in units of alat)
               a(1) = (   1.000000   0.000000   0.000000 )  
               a(2) = (  -0.500000   0.866025   0.000000 )  
               a(3) = (   0.000000   0.000000   6.732013 )  

     reciprocal axes: (cart. coord. in units 2 pi/alat)
               b(1) = (  1.000000  0.577350 -0.000000 )  
               b(2) = (  0.000000  1.154701  0.000000 )  
               b(3) = (  0.000000 -0.000000  0.148544 )  


     PseudoPot. # 1 for Mo read from file:
     ../pseudo/Mo.pbesol.dojo.upf
     MD5 check sum: c40353276b9086539cda6b9e5a66907b
     Pseudo is Norm-conserving + core correction, Zval = 14.0
     Generated using ONCVPSP code by D. R. Hamann
     Using radial grid of 1640 points,  6 beta functions with: 
                l(1) =   0
                l(2) =   0
                l(3) =   1
                l(4) =   1
                l(5) =   2
                l(6) =   2

     PseudoPot. # 2 for S  read from file:
     ../pseudo/S.pbesol.dojo.upf
     MD5 check sum: 501737efeeef1fb1c631cda521d4e019
     Pseudo is Norm-conserving + core correction, Zval =  6.0
     Generated using ONCVPSP code by D. R. Hamann
     Using radial grid of 1146 points,  6 beta functions with: 
                l(1) =   0
                l(2) =   0
                l(3) =   1
                l(4) =   1
                l(5) =   2
                l(6) =   2

     atomic species   valence    mass     pseudopotential
     Mo               14.00    95.95000     Mo( 1.00)
     S                 6.00    32.06500     S ( 1.00)

     12 Sym. Ops. (no inversion) found


                                    s                        frac. trans.

      isym =  1     identity                                     

 cryst.   s( 1) = (     1          0          0      )
                  (     0          1          0      )
                  (     0          0          1      )

 cart.    s( 1) = (  1.0000000  0.0000000  0.0000000 )
                  (  0.0000000  1.0000000  0.0000000 )
                  (  0.0000000  0.0000000  1.0000000 )


      isym =  2     180 deg rotation - cart. axis [0,1,0]        

 cryst.   s( 2) = (    -1          0          0      )
                  (     1          1          0      )
                  (     0          0         -1      )

 cart.    s( 2) = ( -1.0000000  0.0000000  0.0000000 )
                  (  0.0000000  1.0000000  0.0000000 )
                  (  0.0000000  0.0000000 -1.0000000 )


      isym =  3     120 deg rotation - cryst. axis [0,0,1]       

 cryst.   s( 3) = (     0          1          0      )
                  (    -1         -1          0      )
                  (     0          0          1      )

 cart.    s( 3) = ( -0.5000000 -0.8660254  0.0000000 )
                  (  0.8660254 -0.5000000  0.0000000 )
                  (  0.0000000  0.0000000  1.0000000 )


      isym =  4     120 deg rotation - cryst. axis [0,0,-1]      

 cryst.   s( 4) = (    -1         -1          0      )
                  (     1          0          0      )
                  (     0          0          1      )

 cart.    s( 4) = ( -0.5000000  0.8660254  0.0000000 )
                  ( -0.8660254 -0.5000000  0.0000000 )
                  (  0.0000000  0.0000000  1.0000000 )


      isym =  5     180 deg rotation - cryst. axis [1,-1,0]      

 cryst.   s( 5) = (     0         -1          0      )
                  (    -1          0          0      )
                  (     0          0         -1      )

 cart.    s( 5) = (  0.5000000 -0.8660254  0.0000000 )
                  ( -0.8660254 -0.5000000  0.0000000 )
                  (  0.0000000  0.0000000 -1.0000000 )


      isym =  6     180 deg rotation - cryst. axis [2,1,0]       

 cryst.   s( 6) = (     1          1          0      )
                  (     0         -1          0      )
                  (     0          0         -1      )

 cart.    s( 6) = (  0.5000000  0.8660254  0.0000000 )
                  (  0.8660254 -0.5000000  0.0000000 )
                  (  0.0000000  0.0000000 -1.0000000 )


      isym =  7     inv. 180 deg rotation - cart. axis [0,0,1]   

 cryst.   s( 7) = (     1          0          0      )
                  (     0          1          0      )
                  (     0          0         -1      )

 cart.    s( 7) = (  1.0000000  0.0000000  0.0000000 )
                  (  0.0000000  1.0000000  0.0000000 )
                  (  0.0000000  0.0000000 -1.0000000 )


      isym =  8     inv. 180 deg rotation - cart. axis [1,0,0]   

 cryst.   s( 8) = (    -1          0          0      )
                  (     1          1          0      )
                  (     0          0          1      )

 cart.    s( 8) = ( -1.0000000  0.0000000  0.0000000 )
                  (  0.0000000  1.0000000  0.0000000 )
                  (  0.0000000  0.0000000  1.0000000 )


      isym =  9     inv.  60 deg rotation - cryst. axis [0,0,1]  

 cryst.   s( 9) = (    -1         -1          0      )
                  (     1          0          0      )
                  (     0          0         -1      )

 cart.    s( 9) = ( -0.5000000  0.8660254  0.0000000 )
                  ( -0.8660254 -0.5000000  0.0000000 )
                  (  0.0000000  0.0000000 -1.0000000 )


      isym = 10     inv.  60 deg rotation - cryst. axis [0,0,-1] 

 cryst.   s(10) = (     0          1          0      )
                  (    -1         -1          0      )
                  (     0          0         -1      )

 cart.    s(10) = ( -0.5000000 -0.8660254  0.0000000 )
                  (  0.8660254 -0.5000000  0.0000000 )
                  (  0.0000000  0.0000000 -1.0000000 )


      isym = 11     inv. 180 deg rotation - cryst. axis [0,1,0]  

 cryst.   s(11) = (     1          1          0      )
                  (     0         -1          0      )
                  (     0          0          1      )

 cart.    s(11) = (  0.5000000  0.8660254  0.0000000 )
                  (  0.8660254 -0.5000000  0.0000000 )
                  (  0.0000000  0.0000000  1.0000000 )


      isym = 12     inv. 180 deg rotation - cryst. axis [1,1,0]  

 cryst.   s(12) = (     0         -1          0      )
                  (    -1          0          0      )
                  (     0          0          1      )

 cart.    s(12) = (  0.5000000 -0.8660254  0.0000000 )
                  ( -0.8660254 -0.5000000  0.0000000 )
                  (  0.0000000  0.0000000  1.0000000 )


     point group D_3h (-62m)
     there are  6 classes
     the character table:

       E     2C3   3C2   s_h   2S3   3s_v 
A'_1   1.00  1.00  1.00  1.00  1.00  1.00
A'_2   1.00  1.00 -1.00  1.00  1.00 -1.00
E'     2.00 -1.00  0.00  2.00 -1.00  0.00
A''1   1.00  1.00  1.00 -1.00 -1.00 -1.00
A''2   1.00  1.00 -1.00 -1.00 -1.00  1.00
E''    2.00 -1.00  0.00 -2.00  1.00  0.00

     the symmetry operations in each class and the name of the first element:

     E        1
          identity                                               
     2C3      3    4
          120 deg rotation - cryst. axis [0,0,1]                 
     3C2      2    6    5
          180 deg rotation - cart. axis [0,1,0]                  
     s_h      7
          inv. 180 deg rotation - cart. axis [0,0,1]             
     2S3      9   10
          inv.  60 deg rotation - cryst. axis [0,0,1]            
     3s_v     8   11   12
          inv. 180 deg rotation - cart. axis [1,0,0]             

   Cartesian axes

     site n.     atom                  positions (alat units)
         1        Mo     tau(   1) = (   0.0000000   0.5773502   3.3660064  )
         2        S      tau(   2) = (   0.5000000   0.2886751   3.8613563  )
         3        S      tau(   3) = (   0.5000000   0.2886751   2.8706565  )

     Fixed atoms
     site n.  direction
         1    0   0   0
         2    0   0   1
         3    0   0   1

   Crystallographic axes

     site n.     atom                  positions (cryst. coord.)
         1        Mo     tau(   1) = (  0.3333333  0.6666666  0.5000000  )
         2        S      tau(   2) = (  0.6666667  0.3333333  0.5735812  )
         3        S      tau(   3) = (  0.6666667  0.3333333  0.4264188  )

     number of k points=     7
                       cart. coord. in units 2pi/alat
        k(    1) = (   0.0000000   0.0000000   0.0000000), wk =   0.0555556
        k(    2) = (   0.0000000   0.1924501   0.0000000), wk =   0.3333333
        k(    3) = (   0.0000000   0.3849002   0.0000000), wk =   0.3333333
        k(    4) = (   0.0000000  -0.5773503   0.0000000), wk =   0.1666667
        k(    5) = (   0.1666667   0.2886751   0.0000000), wk =   0.3333333
        k(    6) = (   0.1666667   0.4811252   0.0000000), wk =   0.6666667
        k(    7) = (   0.3333333   0.5773503   0.0000000), wk =   0.1111111

                       cryst. coord.
        k(    1) = (   0.0000000   0.0000000   0.0000000), wk =   0.0555556
        k(    2) = (   0.0000000   0.1666667   0.0000000), wk =   0.3333333
        k(    3) = (   0.0000000   0.3333333   0.0000000), wk =   0.3333333
        k(    4) = (   0.0000000  -0.5000000   0.0000000), wk =   0.1666667
        k(    5) = (   0.1666667   0.1666667   0.0000000), wk =   0.3333333
        k(    6) = (   0.1666667   0.3333333   0.0000000), wk =   0.6666667
        k(    7) = (   0.3333333   0.3333333   0.0000000), wk =   0.1111111

     Dense  grid:   118115 G-vectors     FFT dimensions: (  36,  36, 240)

     Dynamical RAM for                 wfc:       0.70 MB

     Dynamical RAM for     wfc (w. buffer):       0.70 MB

     Dynamical RAM for           str. fact:       0.06 MB

     Dynamical RAM for           local pot:       0.00 MB

     Dynamical RAM for          nlocal pot:       0.19 MB

     Dynamical RAM for                qrad:       2.87 MB

     Dynamical RAM for          rho,v,vnew:       0.20 MB

     Dynamical RAM for           G-vectors:       0.12 MB

     Dynamical RAM for          h,s,v(r/c):       1.83 MB

     Dynamical RAM for          <psi|beta>:       0.16 MB

     Dynamical RAM for                 psi:       1.40 MB

     Dynamical RAM for                hpsi:       1.40 MB

     Dynamical RAM for      wfcinit/wfcrot:       2.32 MB

     Estimated static dynamical RAM per process >       4.43 MB

     Estimated max dynamical RAM per process >       9.23 MB

     Estimated total dynamical RAM >     590.65 MB
 ----2D----2D----2D----2D----2D----2D----2D----2D----2D----2D----2D----2D
  The code is running with the 2D cutoff
  Please refer to:
  Sohier, T., Calandra, M., & Mauri, F. (2017), 
  Density functional perturbation theory for gated two-dimensional heterostructures:
  Theoretical developments and application to flexural phonons in graphene.
  Physical Review B, 96(7), 75448. https://doi.org/10.1103/PhysRevB.96.075448
 ----2D----2D----2D----2D----2D----2D----2D----2D----2D----2D----2D----2D

     The potential is recalculated from file :
     ./tmp/MoS2.save/charge-density

     Starting wfcs are   18 randomized atomic wfcs +  182 random wfcs

     Band Structure Calculation
     Davidson diagonalization with overlap

     Computing kpt #:     1  of     7
     total cpu time spent up to now is       10.4 secs

     Computing kpt #:     2  of     7
     total cpu time spent up to now is       18.5 secs

     Computing kpt #:     3  of     7
     total cpu time spent up to now is       27.0 secs

     Computing kpt #:     4  of     7
     total cpu time spent up to now is       34.9 secs

     Computing kpt #:     5  of     7
     total cpu time spent up to now is       42.9 secs

     Computing kpt #:     6  of     7
     total cpu time spent up to now is       50.8 secs

     Computing kpt #:     7  of     7
     total cpu time spent up to now is       58.6 secs

     ethr =  3.85E-09,  avg # of iterations = 35.1

     total cpu time spent up to now is       58.6 secs

     End of band structure calculation

          k = 0.0000 0.0000 0.0000 ( 14903 PWs)   bands (ev):

   -66.6868 -40.8920 -40.6290 -40.6290 -20.1838 -18.8200 -11.7313  -8.5914
    -8.5914  -7.8013  -7.4349  -7.4348  -6.0269  -3.0800  -3.0800  -2.8033
    -2.8033  -0.3380  -0.1580   0.4551   2.1851   2.3419   3.1403   4.8468
     4.8468   5.3454   5.9984   6.8700   6.8700   7.1677   9.4568  10.1080
    10.1897  10.1897  10.5118  10.5118  10.6294  12.3353  13.9645  14.2165
    15.2500  16.2590  17.2480  17.2480  18.8691  18.8691  18.8939  19.1821
    19.5765  19.5765  19.6042  19.7165  19.7308  19.7308  20.2588  20.2960
    20.5770  20.5770  21.5013  21.5013  21.7125  21.9045  21.9215  21.9215
    22.2371  22.2371  22.2618  22.6824  22.6824  22.8745  23.7140  24.1726
    24.4168  24.4168  24.4177  24.4177  24.7232  25.1410  25.5223  25.5223
    25.6544  25.6544  25.7488  26.7014  27.3052  27.3052  27.8234  27.8234
    27.8845  28.6569  28.7419  28.9815  28.9815  29.6305  29.6305  30.0699
    30.0923  30.8725  30.8725  31.0854  31.4467  31.4467  31.5705  31.5705
    31.7274  32.2828  33.2285  33.3169  33.8521  33.8521  33.8750  33.8750
    34.5953  34.6687  35.5259  35.5259  35.5709  35.5709  36.1642  36.7185
    36.7185  37.0138  37.3676  37.4074  37.4074  37.8104  38.2412  38.6414
    38.6414  38.7764  38.7764  38.9323  39.8174  39.8174  40.6595  40.8558
    40.8558  41.5526  41.5526  41.6637  41.7526  41.8740  41.8740  42.2078
    42.6320  42.7509  42.7509  44.7503  44.7745  44.8874  44.8874  45.5535
    45.6737  45.6737  46.3784  46.3784  46.6611  46.8337  47.3532  47.3688
    47.3688  48.5074  48.7300  49.0892  49.0892  50.1394  50.1394  50.8214
    50.8214  50.9171  51.5966  52.1467  52.1467  52.1838  52.4652  52.4652
    52.9024  52.9024  53.2527  53.9217  53.9217  54.1677  54.1716  54.9884
    55.3247  55.6007  55.7796  55.7796  56.8973  56.8973  57.5956  57.6231
    57.6231  57.9914  57.9914  58.7763  58.7838  58.9910  59.0124  59.0278

     occupation numbers 
     1.0000   1.0000   1.0000   1.0000   1.0000   1.0000   1.0000   1.0000
     1.0000   1.0000   1.0000   1.0000   1.0000   0.0000   0.0000   0.0000
     0.0000   0.0000   0.0000   0.0000   0.0000   0.0000   0.0000   0.0000
     0.0000   0.0000   0.0000   0.0000   0.0000   0.0000   0.0000   0.0000
     0.0000   0.0000   0.0000   0.0000   0.0000   0.0000   0.0000   0.0000
     0.0000   0.0000   0.0000   0.0000   0.0000   0.0000   0.0000   0.0000
     0.0000   0.0000   0.0000   0.0000   0.0000   0.0000   0.0000   0.0000
     0.0000   0.0000   0.0000   0.0000   0.0000   0.0000   0.0000   0.0000
     0.0000   0.0000   0.0000   0.0000   0.0000   0.0000   0.0000   0.0000
     0.0000   0.0000   0.0000   0.0000   0.0000   0.0000   0.0000   0.0000
     0.0000   0.0000   0.0000   0.0000   0.0000   0.0000   0.0000   0.0000
     0.0000   0.0000   0.0000   0.0000   0.0000   0.0000   0.0000   0.0000
     0.0000   0.0000   0.0000   0.0000   0.0000   0.0000   0.0000   0.0000
     0.0000   0.0000   0.0000   0.0000   0.0000   0.0000   0.0000   0.0000
     0.0000   0.0000   0.0000   0.0000   0.0000   0.0000   0.0000   0.0000
     0.0000   0.0000   0.0000   0.0000   0.0000   0.0000   0.0000   0.0000
     0.0000   0.0000   0.0000   0.0000   0.0000   0.0000   0.0000   0.0000
     0.0000   0.0000   0.0000   0.0000   0.0000   0.0000   0.0000   0.0000
     0.0000   0.0000   0.0000   0.0000   0.0000   0.0000   0.0000   0.0000
     0.0000   0.0000   0.0000   0.0000   0.0000   0.0000   0.0000   0.0000
     0.0000   0.0000   0.0000   0.0000   0.0000   0.0000   0.0000   0.0000
     0.0000   0.0000   0.0000   0.0000   0.0000   0.0000   0.0000   0.0000
     0.0000   0.0000   0.0000   0.0000   0.0000   0.0000   0.0000   0.0000
     0.0000   0.0000   0.0000   0.0000   0.0000   0.0000   0.0000   0.0000
     0.0000   0.0000   0.0000   0.0000   0.0000   0.0000   0.0000   0.0000

          k = 0.0000 0.1925 0.0000 ( 14829 PWs)   bands (ev):

   -66.6757 -40.8702 -40.7386 -40.6539 -19.7641 -18.6494 -11.3016  -9.3720
    -8.9551  -8.1582  -8.0110  -7.0285  -6.2926  -3.6021  -3.2914  -3.2154
    -2.4611   0.2820   0.3794   1.9645   2.7641   2.8156   3.9299   4.1470
     5.4014   5.9121   6.0919   6.4889   6.7169   7.1147   8.4761   9.2244
     9.2630  10.8468  10.9370  11.0788  13.2440  13.5313  13.7617  13.8053
    14.9660  15.6667  15.9199  16.2247  16.3306  16.3807  16.7916  16.9235
    17.2291  17.6173  18.0611  18.4710  18.7897  19.2430  19.2717  19.4488
    19.9633  20.0890  20.1404  20.5161  21.8487  21.9872  22.0769  22.3843
    23.1229  23.3255  23.3339  23.8624  23.9066  24.2202  24.3903  24.5448
    24.9042  25.2993  25.2995  25.4326  26.0096  26.0708  26.1019  26.1231
    26.7235  26.9708  27.2505  27.5357  27.7126  27.8563  28.0462  28.6602
    28.7565  28.7588  29.0430  29.2541  29.3392  29.5762  29.6422  30.0448
    30.4367  30.4988  31.0603  31.4583  31.5325  31.8476  31.8721  31.9844
    32.4967  33.1193  33.3120  33.3598  33.4823  33.8106  34.2835  34.7701
    34.7738  34.9234  35.0410  35.4395  35.9048  36.3092  36.6693  36.7199
    37.1510  37.1653  37.3577  37.6361  38.0650  38.7501  38.8304  39.1651
    39.2721  39.4375  40.0189  40.1126  40.9267  41.0817  41.0878  41.4183
    41.5703  41.6885  42.0464  42.0782  42.4064  42.9652  43.0216  43.2312
    43.8033  43.8112  43.9841  44.7084  44.7553  44.8537  45.2968  45.3021
    45.8423  45.9613  46.0795  46.5050  46.7769  46.9834  47.2473  47.3465
    47.9778  48.0738  48.5827  48.8700  49.1406  49.6017  50.2006  50.2411
    50.2635  50.5386  50.7482  50.8174  50.8829  51.2067  51.4211  51.4905
    52.0062  52.0707  52.5124  52.8366  53.0297  53.0741  53.1468  53.3239
    53.3748  54.1462  54.1826  54.6118  55.0693  55.1232  55.1948  55.3180
    55.5387  55.7996  56.1776  56.3662  56.5833  56.6007  56.6955  57.1965

     occupation numbers 
     1.0000   1.0000   1.0000   1.0000   1.0000   1.0000   1.0000   1.0000
     1.0000   1.0000   1.0000   1.0000   1.0000   0.0000   0.0000   0.0000
     0.0000   0.0000   0.0000   0.0000   0.0000   0.0000   0.0000   0.0000
     0.0000   0.0000   0.0000   0.0000   0.0000   0.0000   0.0000   0.0000
     0.0000   0.0000   0.0000   0.0000   0.0000   0.0000   0.0000   0.0000
     0.0000   0.0000   0.0000   0.0000   0.0000   0.0000   0.0000   0.0000
     0.0000   0.0000   0.0000   0.0000   0.0000   0.0000   0.0000   0.0000
     0.0000   0.0000   0.0000   0.0000   0.0000   0.0000   0.0000   0.0000
     0.0000   0.0000   0.0000   0.0000   0.0000   0.0000   0.0000   0.0000
     0.0000   0.0000   0.0000   0.0000   0.0000   0.0000   0.0000   0.0000
     0.0000   0.0000   0.0000   0.0000   0.0000   0.0000   0.0000   0.0000
     0.0000   0.0000   0.0000   0.0000   0.0000   0.0000   0.0000   0.0000
     0.0000   0.0000   0.0000   0.0000   0.0000   0.0000   0.0000   0.0000
     0.0000   0.0000   0.0000   0.0000   0.0000   0.0000   0.0000   0.0000
     0.0000   0.0000   0.0000   0.0000   0.0000   0.0000   0.0000   0.0000
     0.0000   0.0000   0.0000   0.0000   0.0000   0.0000   0.0000   0.0000
     0.0000   0.0000   0.0000   0.0000   0.0000   0.0000   0.0000   0.0000
     0.0000   0.0000   0.0000   0.0000   0.0000   0.0000   0.0000   0.0000
     0.0000   0.0000   0.0000   0.0000   0.0000   0.0000   0.0000   0.0000
     0.0000   0.0000   0.0000   0.0000   0.0000   0.0000   0.0000   0.0000
     0.0000   0.0000   0.0000   0.0000   0.0000   0.0000   0.0000   0.0000
     0.0000   0.0000   0.0000   0.0000   0.0000   0.0000   0.0000   0.0000
     0.0000   0.0000   0.0000   0.0000   0.0000   0.0000   0.0000   0.0000
     0.0000   0.0000   0.0000   0.0000   0.0000   0.0000   0.0000   0.0000
     0.0000   0.0000   0.0000   0.0000   0.0000   0.0000   0.0000   0.0000

          k = 0.0000 0.3849 0.0000 ( 14770 PWs)   bands (ev):

   -66.6533 -40.9523 -40.8263 -40.7032 -18.7832 -18.2584 -11.3489 -10.2669
    -9.9123  -8.8403  -7.6082  -7.2653  -6.9890  -3.6353  -3.5680  -2.4676
    -1.7110   1.4149   1.5902   1.9687   2.5658   3.2217   4.2188   4.5402
     5.6319   6.1995   6.5208   7.2177   7.8034   8.4344   9.0509   9.1572
     9.4287   9.4851   9.7710  11.5098  11.6096  11.7608  12.4729  12.7929
    13.8436  14.5121  14.6553  15.4242  15.5202  15.6425  15.8785  16.4444
    16.7580  16.8577  17.1257  17.8537  18.0234  18.6242  18.6495  18.9219
    19.3450  19.5792  19.7653  20.3666  21.0120  21.1413  21.2395  21.2796
    22.1515  22.3137  22.4199  22.6175  23.2720  23.3111  23.8409  24.6411
    24.9657  25.4233  25.4632  25.4716  26.2527  26.7119  26.8410  27.2929
    27.5026  27.5262  27.7922  28.5023  28.7633  28.8376  29.3222  29.3727
    29.5103  30.2740  30.7707  30.9049  31.1176  31.1513  31.1859  31.8680
    32.0978  32.1303  32.2963  32.6003  32.7431  32.8668  33.9034  33.9261
    33.9913  34.2509  34.5155  34.7820  35.3808  35.3968  35.7140  35.8826
    35.8847  36.2636  36.2690  36.8757  37.3253  37.4384  37.4836  37.6724
    37.8654  38.6342  38.8698  39.2160  39.2385  39.2900  39.6228  39.8298
    40.1385  40.2800  40.7527  41.0993  41.2819  41.3776  41.7469  41.8474
    42.0364  42.4741  42.6749  42.9719  42.9786  43.0303  43.1163  43.5559
    43.7211  43.8973  43.9820  44.1073  44.5365  44.6845  44.8240  45.1302
    45.6902  45.8115  46.0759  46.2001  46.2586  46.5718  46.7351  46.9255
    47.1018  47.5030  47.6698  47.7973  47.9515  48.3295  48.4639  49.3075
    49.3108  49.3789  49.4384  49.5534  49.7070  49.9200  50.0749  50.1930
    50.4361  51.0122  51.7225  51.7341  51.8560  52.1469  52.4079  53.2008
    53.2520  53.4465  53.5994  53.7642  53.7696  54.3408  54.3802  54.3905
    54.5054  54.7651  54.8269  55.4259  55.5413  55.5511  55.6652  56.1337

     occupation numbers 
     1.0000   1.0000   1.0000   1.0000   1.0000   1.0000   1.0000   1.0000
     1.0000   1.0000   1.0000   1.0000   1.0000   0.0000   0.0000   0.0000
     0.0000   0.0000   0.0000   0.0000   0.0000   0.0000   0.0000   0.0000
     0.0000   0.0000   0.0000   0.0000   0.0000   0.0000   0.0000   0.0000
     0.0000   0.0000   0.0000   0.0000   0.0000   0.0000   0.0000   0.0000
     0.0000   0.0000   0.0000   0.0000   0.0000   0.0000   0.0000   0.0000
     0.0000   0.0000   0.0000   0.0000   0.0000   0.0000   0.0000   0.0000
     0.0000   0.0000   0.0000   0.0000   0.0000   0.0000   0.0000   0.0000
     0.0000   0.0000   0.0000   0.0000   0.0000   0.0000   0.0000   0.0000
     0.0000   0.0000   0.0000   0.0000   0.0000   0.0000   0.0000   0.0000
     0.0000   0.0000   0.0000   0.0000   0.0000   0.0000   0.0000   0.0000
     0.0000   0.0000   0.0000   0.0000   0.0000   0.0000   0.0000   0.0000
     0.0000   0.0000   0.0000   0.0000   0.0000   0.0000   0.0000   0.0000
     0.0000   0.0000   0.0000   0.0000   0.0000   0.0000   0.0000   0.0000
     0.0000   0.0000   0.0000   0.0000   0.0000   0.0000   0.0000   0.0000
     0.0000   0.0000   0.0000   0.0000   0.0000   0.0000   0.0000   0.0000
     0.0000   0.0000   0.0000   0.0000   0.0000   0.0000   0.0000   0.0000
     0.0000   0.0000   0.0000   0.0000   0.0000   0.0000   0.0000   0.0000
     0.0000   0.0000   0.0000   0.0000   0.0000   0.0000   0.0000   0.0000
     0.0000   0.0000   0.0000   0.0000   0.0000   0.0000   0.0000   0.0000
     0.0000   0.0000   0.0000   0.0000   0.0000   0.0000   0.0000   0.0000
     0.0000   0.0000   0.0000   0.0000   0.0000   0.0000   0.0000   0.0000
     0.0000   0.0000   0.0000   0.0000   0.0000   0.0000   0.0000   0.0000
     0.0000   0.0000   0.0000   0.0000   0.0000   0.0000   0.0000   0.0000
     0.0000   0.0000   0.0000   0.0000   0.0000   0.0000   0.0000   0.0000

          k = 0.0000-0.5774 0.0000 ( 14726 PWs)   bands (ev):

   -66.6421 -41.0566 -40.8042 -40.7277 -18.1706 -18.0283 -11.9065 -10.8985
   -10.1252  -9.1700  -7.8724  -6.8567  -6.6192  -3.5747  -3.0646  -2.0192
    -1.4955   0.2043   1.8592   2.3398   3.1063   3.7816   4.5792   5.1674
     5.3471   5.6838   5.8211   7.0189   7.4086   7.9215   8.4290   9.6673
    10.1867  10.2492  10.9259  11.3614  11.7137  12.1027  12.4466  13.0333
    13.5347  13.6902  14.0544  14.1423  14.7055  15.2159  15.8749  16.2332
    16.2345  16.7412  16.7597  17.0840  17.6877  17.7350  18.3417  18.5690
    18.8346  18.9111  19.2465  19.3876  20.3372  20.7723  21.1543  21.3106
    21.7209  22.1981  22.2074  22.3867  23.0015  23.9758  24.0784  24.6236
    25.1795  25.3643  25.6828  25.8929  26.4492  26.8645  26.8745  27.0065
    27.0705  27.4909  28.1435  28.8109  29.0436  29.7236  30.0809  30.2477
    30.2710  30.7670  30.9968  31.6092  31.7951  31.9282  32.5257  32.8411
    32.8862  32.9409  33.7355  33.9590  33.9728  34.1993  34.7388  34.9411
    35.1252  35.1931  35.3458  35.5598  35.6357  35.7770  36.0738  36.2792
    36.3590  36.7004  37.0282  37.2821  37.3664  37.6793  37.7328  37.9788
    38.1473  38.3110  38.8355  38.8605  38.9488  39.0899  39.5867  39.8609
    39.9978  40.6546  41.1337  41.1697  41.2815  41.4674  41.9103  42.0747
    42.1771  42.1985  42.6046  42.6111  43.1724  43.3347  43.5022  43.7354
    43.9202  44.0680  44.3556  44.6175  44.7536  45.0985  45.4095  45.6063
    45.7063  45.9509  46.0879  46.3996  46.5134  46.8048  46.9356  47.0314
    47.1870  47.2258  47.6155  47.8094  48.1465  48.5153  48.6554  48.9943
    49.0292  49.3710  49.4823  49.5214  49.6503  49.7919  49.7935  49.8776
    50.9505  50.9851  51.0778  51.2023  51.3914  51.5635  51.7376  51.7397
    51.9025  52.3172  52.4776  52.9339  52.9594  53.0353  53.3667  53.5665
    54.0468  54.3891  54.7508  54.7987  54.9171  55.0040  55.0489  55.0547

     occupation numbers 
     1.0000   1.0000   1.0000   1.0000   1.0000   1.0000   1.0000   1.0000
     1.0000   1.0000   1.0000   1.0000   1.0000   0.0000   0.0000   0.0000
     0.0000   0.0000   0.0000   0.0000   0.0000   0.0000   0.0000   0.0000
     0.0000   0.0000   0.0000   0.0000   0.0000   0.0000   0.0000   0.0000
     0.0000   0.0000   0.0000   0.0000   0.0000   0.0000   0.0000   0.0000
     0.0000   0.0000   0.0000   0.0000   0.0000   0.0000   0.0000   0.0000
     0.0000   0.0000   0.0000   0.0000   0.0000   0.0000   0.0000   0.0000
     0.0000   0.0000   0.0000   0.0000   0.0000   0.0000   0.0000   0.0000
     0.0000   0.0000   0.0000   0.0000   0.0000   0.0000   0.0000   0.0000
     0.0000   0.0000   0.0000   0.0000   0.0000   0.0000   0.0000   0.0000
     0.0000   0.0000   0.0000   0.0000   0.0000   0.0000   0.0000   0.0000
     0.0000   0.0000   0.0000   0.0000   0.0000   0.0000   0.0000   0.0000
     0.0000   0.0000   0.0000   0.0000   0.0000   0.0000   0.0000   0.0000
     0.0000   0.0000   0.0000   0.0000   0.0000   0.0000   0.0000   0.0000
     0.0000   0.0000   0.0000   0.0000   0.0000   0.0000   0.0000   0.0000
     0.0000   0.0000   0.0000   0.0000   0.0000   0.0000   0.0000   0.0000
     0.0000   0.0000   0.0000   0.0000   0.0000   0.0000   0.0000   0.0000
     0.0000   0.0000   0.0000   0.0000   0.0000   0.0000   0.0000   0.0000
     0.0000   0.0000   0.0000   0.0000   0.0000   0.0000   0.0000   0.0000
     0.0000   0.0000   0.0000   0.0000   0.0000   0.0000   0.0000   0.0000
     0.0000   0.0000   0.0000   0.0000   0.0000   0.0000   0.0000   0.0000
     0.0000   0.0000   0.0000   0.0000   0.0000   0.0000   0.0000   0.0000
     0.0000   0.0000   0.0000   0.0000   0.0000   0.0000   0.0000   0.0000
     0.0000   0.0000   0.0000   0.0000   0.0000   0.0000   0.0000   0.0000
     0.0000   0.0000   0.0000   0.0000   0.0000   0.0000   0.0000   0.0000

          k = 0.1667 0.2887 0.0000 ( 14811 PWs)   bands (ev):

   -66.6589 -40.8794 -40.8373 -40.7118 -19.0548 -18.3600 -11.0242  -9.8187
    -9.7256  -9.2247  -7.9288  -6.9764  -6.7711  -4.0038  -3.3772  -3.2127
    -1.6225   1.2529   1.3700   3.0526   3.3738   3.4745   3.9483   4.2335
     5.6173   5.6785   5.9193   6.4903   6.6811   7.8936   8.6540   9.0164
     9.7162  10.9678  11.6376  11.7701  11.7918  11.9870  12.5410  12.6231
    13.8581  14.0445  14.2322  14.3652  15.0426  15.9957  16.2735  16.8093
    16.8143  17.2438  17.4068  17.7693  18.0973  18.8772  19.0002  19.1598
    20.0564  20.1980  20.5935  20.8915  21.6105  21.7496  21.9328  21.9818
    22.3562  22.6091  22.7649  23.2039  23.5642  23.5763  24.0906  24.1035
    24.5904  24.8160  25.4886  25.6447  25.8693  25.9126  26.2232  27.0731
    27.3247  27.3744  27.7134  27.7776  27.9205  28.6030  29.1054  29.1477
    29.3837  29.4255  29.8764  30.5909  30.8203  31.0378  31.3196  31.4643
    31.7264  32.0239  32.2784  32.4524  32.6710  32.8726  33.0521  33.1781
    33.5894  33.9384  33.9822  34.1604  34.3262  34.7753  35.2338  35.3496
    35.7855  36.1526  36.5524  36.8030  36.8902  36.9388  37.3923  37.6847
    38.0795  38.1382  38.4192  38.5095  38.6438  38.9456  39.2865  39.5104
    39.5355  39.9545  40.3637  40.8996  40.9354  41.4299  41.5845  41.7064
    41.9128  41.9954  42.5441  42.5937  42.6852  42.7696  43.0910  43.5962
    43.8348  43.8451  44.2781  44.3821  44.6584  45.1776  45.2675  45.2774
    45.9720  46.0534  46.1251  46.3334  46.3953  46.7286  47.0224  47.2872
    47.3010  47.7961  48.2743  48.6284  48.6809  48.8626  48.9707  49.1885
    49.4836  49.5532  49.7458  49.9762  50.4672  50.4977  50.8626  51.0456
    51.3918  51.9601  51.9814  52.2053  52.4541  52.7174  52.7631  52.8659
    53.0525  53.2300  53.4071  53.6465  54.0119  54.1116  54.4856  54.5988
    54.7236  54.9852  55.0941  55.5731  55.6187  55.8192  55.8543  56.4974

     occupation numbers 
     1.0000   1.0000   1.0000   1.0000   1.0000   1.0000   1.0000   1.0000
     1.0000   1.0000   1.0000   1.0000   1.0000   0.0000   0.0000   0.0000
     0.0000   0.0000   0.0000   0.0000   0.0000   0.0000   0.0000   0.0000
     0.0000   0.0000   0.0000   0.0000   0.0000   0.0000   0.0000   0.0000
     0.0000   0.0000   0.0000   0.0000   0.0000   0.0000   0.0000   0.0000
     0.0000   0.0000   0.0000   0.0000   0.0000   0.0000   0.0000   0.0000
     0.0000   0.0000   0.0000   0.0000   0.0000   0.0000   0.0000   0.0000
     0.0000   0.0000   0.0000   0.0000   0.0000   0.0000   0.0000   0.0000
     0.0000   0.0000   0.0000   0.0000   0.0000   0.0000   0.0000   0.0000
     0.0000   0.0000   0.0000   0.0000   0.0000   0.0000   0.0000   0.0000
     0.0000   0.0000   0.0000   0.0000   0.0000   0.0000   0.0000   0.0000
     0.0000   0.0000   0.0000   0.0000   0.0000   0.0000   0.0000   0.0000
     0.0000   0.0000   0.0000   0.0000   0.0000   0.0000   0.0000   0.0000
     0.0000   0.0000   0.0000   0.0000   0.0000   0.0000   0.0000   0.0000
     0.0000   0.0000   0.0000   0.0000   0.0000   0.0000   0.0000   0.0000
     0.0000   0.0000   0.0000   0.0000   0.0000   0.0000   0.0000   0.0000
     0.0000   0.0000   0.0000   0.0000   0.0000   0.0000   0.0000   0.0000
     0.0000   0.0000   0.0000   0.0000   0.0000   0.0000   0.0000   0.0000
     0.0000   0.0000   0.0000   0.0000   0.0000   0.0000   0.0000   0.0000
     0.0000   0.0000   0.0000   0.0000   0.0000   0.0000   0.0000   0.0000
     0.0000   0.0000   0.0000   0.0000   0.0000   0.0000   0.0000   0.0000
     0.0000   0.0000   0.0000   0.0000   0.0000   0.0000   0.0000   0.0000
     0.0000   0.0000   0.0000   0.0000   0.0000   0.0000   0.0000   0.0000
     0.0000   0.0000   0.0000   0.0000   0.0000   0.0000   0.0000   0.0000
     0.0000   0.0000   0.0000   0.0000   0.0000   0.0000   0.0000   0.0000

          k = 0.1667 0.4811 0.0000 ( 14750 PWs)   bands (ev):

   -66.6421 -41.0034 -40.8043 -40.7834 -18.1941 -18.0086 -11.4275 -11.0013
    -9.8511  -9.2428  -8.3503  -7.6838  -6.4557  -3.6457  -3.0205  -2.5553
    -1.3747   1.0991   2.7383   2.7470   3.6344   3.8163   4.6118   4.7822
     5.3265   6.0567   6.6902   7.3234   7.5163   7.9997   8.2695   8.6441
     9.4896   9.9380  10.2249  10.6018  10.7071  11.1946  12.1196  12.4983
    12.7110  13.4960  13.8518  14.0700  14.4455  15.1410  15.3382  15.8883
    16.4127  16.9062  17.0982  17.6797  17.7861  18.2969  19.1516  19.2286
    19.7212  19.8598  20.5394  20.6597  20.9247  21.1666  21.6158  22.1819
    22.5074  22.7174  22.9640  23.0497  23.2887  23.6243  23.9514  24.1240
    24.5089  25.5821  25.7305  26.1427  26.2699  26.5595  26.8307  27.0814
    27.2656  27.4817  27.8794  28.3264  28.6319  28.8732  29.2848  29.4822
    29.9706  29.9945  30.5371  30.7885  31.0565  31.3854  31.6192  31.9533
    32.2416  32.6085  32.8174  33.2315  33.7010  33.8804  33.9801  34.1847
    34.6337  34.8041  35.2216  35.4606  35.5062  35.8721  36.2481  36.2986
    36.8049  36.9035  37.1444  37.1647  37.6281  37.7405  38.1814  38.3406
    38.6290  38.9065  38.9717  39.2928  39.3535  39.6626  40.1152  40.1309
    40.3220  40.8249  40.9037  41.0870  41.2449  41.5774  41.7944  42.2347
    42.2486  42.4958  42.6091  42.9961  43.2201  43.3955  43.5217  43.7353
    44.0904  44.4059  44.5482  44.7734  44.8706  45.2441  45.2896  45.4956
    45.7144  45.9247  46.0090  46.2127  46.6540  46.8603  46.8821  47.0312
    47.4044  47.7274  48.2668  48.3701  48.5506  48.6965  49.0991  49.1189
    49.4344  49.5117  49.7107  50.0522  50.1440  50.4548  50.7314  50.9462
    51.0733  51.1863  51.7681  51.7693  52.0211  52.1211  52.4121  52.5133
    52.6904  52.8913  53.0301  53.2703  53.3543  53.8188  54.0120  54.1934
    54.2994  54.5745  54.7282  54.8614  55.1443  55.1950  55.3850  55.5091

     occupation numbers 
     1.0000   1.0000   1.0000   1.0000   1.0000   1.0000   1.0000   1.0000
     1.0000   1.0000   1.0000   1.0000   1.0000   0.0000   0.0000   0.0000
     0.0000   0.0000   0.0000   0.0000   0.0000   0.0000   0.0000   0.0000
     0.0000   0.0000   0.0000   0.0000   0.0000   0.0000   0.0000   0.0000
     0.0000   0.0000   0.0000   0.0000   0.0000   0.0000   0.0000   0.0000
     0.0000   0.0000   0.0000   0.0000   0.0000   0.0000   0.0000   0.0000
     0.0000   0.0000   0.0000   0.0000   0.0000   0.0000   0.0000   0.0000
     0.0000   0.0000   0.0000   0.0000   0.0000   0.0000   0.0000   0.0000
     0.0000   0.0000   0.0000   0.0000   0.0000   0.0000   0.0000   0.0000
     0.0000   0.0000   0.0000   0.0000   0.0000   0.0000   0.0000   0.0000
     0.0000   0.0000   0.0000   0.0000   0.0000   0.0000   0.0000   0.0000
     0.0000   0.0000   0.0000   0.0000   0.0000   0.0000   0.0000   0.0000
     0.0000   0.0000   0.0000   0.0000   0.0000   0.0000   0.0000   0.0000
     0.0000   0.0000   0.0000   0.0000   0.0000   0.0000   0.0000   0.0000
     0.0000   0.0000   0.0000   0.0000   0.0000   0.0000   0.0000   0.0000
     0.0000   0.0000   0.0000   0.0000   0.0000   0.0000   0.0000   0.0000
     0.0000   0.0000   0.0000   0.0000   0.0000   0.0000   0.0000   0.0000
     0.0000   0.0000   0.0000   0.0000   0.0000   0.0000   0.0000   0.0000
     0.0000   0.0000   0.0000   0.0000   0.0000   0.0000   0.0000   0.0000
     0.0000   0.0000   0.0000   0.0000   0.0000   0.0000   0.0000   0.0000
     0.0000   0.0000   0.0000   0.0000   0.0000   0.0000   0.0000   0.0000
     0.0000   0.0000   0.0000   0.0000   0.0000   0.0000   0.0000   0.0000
     0.0000   0.0000   0.0000   0.0000   0.0000   0.0000   0.0000   0.0000
     0.0000   0.0000   0.0000   0.0000   0.0000   0.0000   0.0000   0.0000
     0.0000   0.0000   0.0000   0.0000   0.0000   0.0000   0.0000   0.0000

          k = 0.3333 0.5774 0.0000 ( 14760 PWs)   bands (ev):

   -66.6365 -40.9516 -40.9019 -40.7933 -17.8786 -17.8511 -11.5510 -10.6848
   -10.1610  -9.5346  -8.9084  -8.1397  -5.9683  -4.1736  -2.9071  -2.2593
    -0.8513   1.3283   1.6225   3.6468   4.6229   5.3761   5.7140   5.9549
     6.0298   6.3941   6.9600   7.2029   7.4665   7.4740   7.4958   7.8326
     8.3987   9.1741   9.4436   9.6603   9.8701  10.5421  10.9157  11.6837
    12.5904  12.8397  13.4580  13.4583  13.7787  14.1755  14.5895  16.0023
    17.4611  17.6822  17.8638  17.9946  18.1254  19.0122  19.0497  19.5827
    19.6505  20.1070  20.9538  21.2066  21.3346  21.4262  22.0164  22.0627
    22.4065  22.6376  23.6587  23.6781  23.8061  23.8434  23.9375  25.2270
    25.4152  25.9579  26.4326  26.6587  26.6917  26.9196  27.2173  27.2907
    27.4135  27.7415  27.8203  27.9455  28.7078  29.0308  29.0993  29.1397
    29.4315  29.6242  30.2989  30.4280  30.5321  30.8726  31.0608  31.6174
    31.9222  32.2144  32.5413  32.5764  32.5852  33.1050  33.1327  33.1406
    33.5375  33.6267  34.5600  34.8406  35.1324  35.8034  35.8181  35.9905
    36.7199  36.7255  36.7995  36.8897  37.7189  37.9797  38.3784  38.5699
    38.6864  38.7731  39.0471  39.2894  39.3998  39.4468  39.5571  40.8300
    41.4081  41.8467  42.0507  42.3513  42.5769  42.6393  43.0865  43.1085
    43.5340  43.7320  43.7971  44.2417  44.8421  45.1159  45.4474  45.6329
    45.6643  45.7684  45.8299  45.9963  46.0022  46.1174  46.3236  46.8419
    46.8936  47.0483  47.0605  47.0608  47.2191  47.6848  47.7121  47.8767
    48.1351  48.2354  48.3476  48.4278  48.6026  48.6096  48.7971  48.9082
    49.1225  49.1491  49.5828  49.6837  49.9432  50.0641  50.1616  50.3886
    50.6338  50.6989  50.9213  51.2266  51.2825  51.3697  51.5989  51.8006
    51.8349  52.0802  52.1470  52.6046  52.6176  52.6352  53.0353  53.0355
    53.1165  53.2897  53.4557  53.9976  54.1283  54.4661  54.5999  54.6955

     occupation numbers 
     1.0000   1.0000   1.0000   1.0000   1.0000   1.0000   1.0000   1.0000
     1.0000   1.0000   1.0000   1.0000   1.0000   0.0000   0.0000   0.0000
     0.0000   0.0000   0.0000   0.0000   0.0000   0.0000   0.0000   0.0000
     0.0000   0.0000   0.0000   0.0000   0.0000   0.0000   0.0000   0.0000
     0.0000   0.0000   0.0000   0.0000   0.0000   0.0000   0.0000   0.0000
     0.0000   0.0000   0.0000   0.0000   0.0000   0.0000   0.0000   0.0000
     0.0000   0.0000   0.0000   0.0000   0.0000   0.0000   0.0000   0.0000
     0.0000   0.0000   0.0000   0.0000   0.0000   0.0000   0.0000   0.0000
     0.0000   0.0000   0.0000   0.0000   0.0000   0.0000   0.0000   0.0000
     0.0000   0.0000   0.0000   0.0000   0.0000   0.0000   0.0000   0.0000
     0.0000   0.0000   0.0000   0.0000   0.0000   0.0000   0.0000   0.0000
     0.0000   0.0000   0.0000   0.0000   0.0000   0.0000   0.0000   0.0000
     0.0000   0.0000   0.0000   0.0000   0.0000   0.0000   0.0000   0.0000
     0.0000   0.0000   0.0000   0.0000   0.0000   0.0000   0.0000   0.0000
     0.0000   0.0000   0.0000   0.0000   0.0000   0.0000   0.0000   0.0000
     0.0000   0.0000   0.0000   0.0000   0.0000   0.0000   0.0000   0.0000
     0.0000   0.0000   0.0000   0.0000   0.0000   0.0000   0.0000   0.0000
     0.0000   0.0000   0.0000   0.0000   0.0000   0.0000   0.0000   0.0000
     0.0000   0.0000   0.0000   0.0000   0.0000   0.0000   0.0000   0.0000
     0.0000   0.0000   0.0000   0.0000   0.0000   0.0000   0.0000   0.0000
     0.0000   0.0000   0.0000   0.0000   0.0000   0.0000   0.0000   0.0000
     0.0000   0.0000   0.0000   0.0000   0.0000   0.0000   0.0000   0.0000
     0.0000   0.0000   0.0000   0.0000   0.0000   0.0000   0.0000   0.0000
     0.0000   0.0000   0.0000   0.0000   0.0000   0.0000   0.0000   0.0000
     0.0000   0.0000   0.0000   0.0000   0.0000   0.0000   0.0000   0.0000

     highest occupied, lowest unoccupied level (ev):    -5.9683   -4.1736

     Writing all to output data dir ./tmp/MoS2.save/ :
     XML data file, pseudopotentials, collected wavefunctions

     init_run     :      1.07s CPU      1.30s WALL (       1 calls)
     electrons    :     56.25s CPU     57.07s WALL (       1 calls)

     Called by init_run:
     wfcinit      :      0.00s CPU      0.00s WALL (       1 calls)
     wfcinit:atom :      0.00s CPU      0.00s WALL (       7 calls)
     wfcinit:wfcr :      1.15s CPU      1.18s WALL (       7 calls)
     potinit      :      0.01s CPU      0.02s WALL (       1 calls)
     hinit0       :      0.68s CPU      0.68s WALL (       1 calls)

     Called by electrons:
     c_bands      :     56.24s CPU     57.05s WALL (       1 calls)
     v_of_rho     :      0.01s CPU      0.01s WALL (       1 calls)
     v_h          :      0.00s CPU      0.00s WALL (       1 calls)
     v_xc         :      0.01s CPU      0.01s WALL (       1 calls)

     Called by c_bands:
     init_us_2    :      0.00s CPU      0.00s WALL (       7 calls)
     cegterg      :     55.04s CPU     55.79s WALL (      14 calls)

     Called by sum_band:

     Called by *egterg:
     cdiaghg      :     35.21s CPU     35.55s WALL (     253 calls)
     cegterg:over :      4.20s CPU      4.29s WALL (     246 calls)
     cegterg:upda :      1.88s CPU      1.92s WALL (     246 calls)
     cegterg:last :      3.47s CPU      3.56s WALL (     117 calls)
     cdiaghg:chol :      0.76s CPU      0.81s WALL (     253 calls)
     cdiaghg:inve :      0.66s CPU      0.67s WALL (     253 calls)
     cdiaghg:para :      5.80s CPU      6.01s WALL (     506 calls)
     h_psi        :     10.86s CPU     11.07s WALL (     267 calls)
     g_psi        :      0.04s CPU      0.04s WALL (     246 calls)

     Called by h_psi:
     h_psi:calbec :      0.34s CPU      0.35s WALL (     267 calls)
     vloc_psi     :     10.25s CPU     10.44s WALL (     267 calls)
                                        0.00s GPU  (     267 calls)
     add_vuspsi   :      0.22s CPU      0.22s WALL (     267 calls)

     General routines
     calbec       :      0.34s CPU      0.35s WALL (     267 calls)
     fft          :      0.67s CPU      0.67s WALL (      11 calls)
     fftw         :      9.66s CPU      9.84s WALL (   49428 calls)
     davcio       :      0.01s CPU      0.02s WALL (      14 calls)

     Parallel routines

     PWSCF        :     59.18s CPU   1m 0.78s WALL


   This run was terminated on:   9:23:46  13Mar2026            

=------------------------------------------------------------------------------=
   JOB DONE.
=------------------------------------------------------------------------------=
