
     Program PWSCF v.7.5 starts on 19Mar2026 at 10:52:19 
        Git branch: HEAD
        Last git commit: 770a0b2d12928a67048e2f3da8d10d057e52179e
        Last git commit date: Tue Aug 19 09:57:12 2025 +0000
        Last git commit subject: Merge branch 'QE-7.5-RC' into 'master'

     This program is part of the open-source Quantum ESPRESSO suite
     for quantum simulation of materials; please cite
         "P. Giannozzi et al., J. Phys.:Condens. Matter 21 395502 (2009);
         "P. Giannozzi et al., J. Phys.:Condens. Matter 29 465901 (2017);
         "P. Giannozzi et al., J. Chem. Phys. 152 154105 (2020);
          URL http://www.quantum-espresso.org", 
     in publications or presentations arising from this work. More details at
     http://www.quantum-espresso.org/quote

     Parallel version (MPI), running on    64 processors

     MPI processes distributed on     4 nodes
     242860 MiB available memory on the printing compute node when the environment starts

     Waiting for input...
     Reading input from standard input

     Current dimensions of program PWSCF are:
     Max number of different atomic species (ntypx) = 10
     Max number of k-points (npk) =  40000
     Max angular momentum in pseudopotentials (lmaxx) =  4

     Atomic positions and unit cell read from directory:
     ./tmp/MoS2.save/


     K-points division:     npool     =       8
     R & G space division:  proc/nbgrp/npool/nimage =       8
     Subspace diagonalization in iterative solution of the eigenvalue problem:
     one sub-group per band group will be used
     custom distributed-memory algorithm (size of sub-group:  2*  2 procs)


     Parallelization info
     --------------------
     sticks:   dense  smooth     PW     G-vecs:    dense   smooth      PW
     Min          96      96     27                14754    14754    2303
     Max          97      97     28                14781    14781    2322
     Sum         769     769    223               118115   118115   18489

     Using Slab Decomposition



     bravais-lattice index     =            4
     lattice parameter (alat)  =       5.9418  a.u.
     unit-cell volume          =    1222.9839 (a.u.)^3
     number of atoms/cell      =            3
     number of atomic types    =            2
     number of electrons       =        26.00
     number of Kohn-Sham states=          200
     kinetic-energy cutoff     =      80.0000  Ry
     charge density cutoff     =     320.0000  Ry
     Exchange-correlation= PBESOL
                           (   1   4  10   8   0   0   0)

     celldm(1)=   5.941759  celldm(2)=   0.000000  celldm(3)=   6.732013
     celldm(4)=   0.000000  celldm(5)=   0.000000  celldm(6)=   0.000000

     crystal axes: (cart. coord. in units of alat)
               a(1) = (   1.000000   0.000000   0.000000 )  
               a(2) = (  -0.500000   0.866025   0.000000 )  
               a(3) = (   0.000000   0.000000   6.732013 )  

     reciprocal axes: (cart. coord. in units 2 pi/alat)
               b(1) = (  1.000000  0.577350 -0.000000 )  
               b(2) = (  0.000000  1.154701  0.000000 )  
               b(3) = (  0.000000 -0.000000  0.148544 )  


     PseudoPot. # 1 for Mo read from file:
     ../pseudo/Mo.pbesol.dojo.upf
     MD5 check sum: c40353276b9086539cda6b9e5a66907b
     Pseudo is Norm-conserving + core correction, Zval = 14.0
     Generated using ONCVPSP code by D. R. Hamann
     Using radial grid of 1640 points,  6 beta functions with: 
                l(1) =   0
                l(2) =   0
                l(3) =   1
                l(4) =   1
                l(5) =   2
                l(6) =   2

     PseudoPot. # 2 for S  read from file:
     ../pseudo/S.pbesol.dojo.upf
     MD5 check sum: 501737efeeef1fb1c631cda521d4e019
     Pseudo is Norm-conserving + core correction, Zval =  6.0
     Generated using ONCVPSP code by D. R. Hamann
     Using radial grid of 1146 points,  6 beta functions with: 
                l(1) =   0
                l(2) =   0
                l(3) =   1
                l(4) =   1
                l(5) =   2
                l(6) =   2

     atomic species   valence    mass     pseudopotential
     Mo               14.00    95.95000     Mo( 1.00)
     S                 6.00    32.06500     S ( 1.00)

     12 Sym. Ops. (no inversion) found


                                    s                        frac. trans.

      isym =  1     identity                                     

 cryst.   s( 1) = (     1          0          0      )
                  (     0          1          0      )
                  (     0          0          1      )

 cart.    s( 1) = (  1.0000000  0.0000000  0.0000000 )
                  (  0.0000000  1.0000000  0.0000000 )
                  (  0.0000000  0.0000000  1.0000000 )


      isym =  2     180 deg rotation - cart. axis [0,1,0]        

 cryst.   s( 2) = (    -1          0          0      )
                  (     1          1          0      )
                  (     0          0         -1      )

 cart.    s( 2) = ( -1.0000000  0.0000000  0.0000000 )
                  (  0.0000000  1.0000000  0.0000000 )
                  (  0.0000000  0.0000000 -1.0000000 )


      isym =  3     120 deg rotation - cryst. axis [0,0,1]       

 cryst.   s( 3) = (     0          1          0      )
                  (    -1         -1          0      )
                  (     0          0          1      )

 cart.    s( 3) = ( -0.5000000 -0.8660254  0.0000000 )
                  (  0.8660254 -0.5000000  0.0000000 )
                  (  0.0000000  0.0000000  1.0000000 )


      isym =  4     120 deg rotation - cryst. axis [0,0,-1]      

 cryst.   s( 4) = (    -1         -1          0      )
                  (     1          0          0      )
                  (     0          0          1      )

 cart.    s( 4) = ( -0.5000000  0.8660254  0.0000000 )
                  ( -0.8660254 -0.5000000  0.0000000 )
                  (  0.0000000  0.0000000  1.0000000 )


      isym =  5     180 deg rotation - cryst. axis [1,-1,0]      

 cryst.   s( 5) = (     0         -1          0      )
                  (    -1          0          0      )
                  (     0          0         -1      )

 cart.    s( 5) = (  0.5000000 -0.8660254  0.0000000 )
                  ( -0.8660254 -0.5000000  0.0000000 )
                  (  0.0000000  0.0000000 -1.0000000 )


      isym =  6     180 deg rotation - cryst. axis [2,1,0]       

 cryst.   s( 6) = (     1          1          0      )
                  (     0         -1          0      )
                  (     0          0         -1      )

 cart.    s( 6) = (  0.5000000  0.8660254  0.0000000 )
                  (  0.8660254 -0.5000000  0.0000000 )
                  (  0.0000000  0.0000000 -1.0000000 )


      isym =  7     inv. 180 deg rotation - cart. axis [0,0,1]   

 cryst.   s( 7) = (     1          0          0      )
                  (     0          1          0      )
                  (     0          0         -1      )

 cart.    s( 7) = (  1.0000000  0.0000000  0.0000000 )
                  (  0.0000000  1.0000000  0.0000000 )
                  (  0.0000000  0.0000000 -1.0000000 )


      isym =  8     inv. 180 deg rotation - cart. axis [1,0,0]   

 cryst.   s( 8) = (    -1          0          0      )
                  (     1          1          0      )
                  (     0          0          1      )

 cart.    s( 8) = ( -1.0000000  0.0000000  0.0000000 )
                  (  0.0000000  1.0000000  0.0000000 )
                  (  0.0000000  0.0000000  1.0000000 )


      isym =  9     inv.  60 deg rotation - cryst. axis [0,0,1]  

 cryst.   s( 9) = (    -1         -1          0      )
                  (     1          0          0      )
                  (     0          0         -1      )

 cart.    s( 9) = ( -0.5000000  0.8660254  0.0000000 )
                  ( -0.8660254 -0.5000000  0.0000000 )
                  (  0.0000000  0.0000000 -1.0000000 )


      isym = 10     inv.  60 deg rotation - cryst. axis [0,0,-1] 

 cryst.   s(10) = (     0          1          0      )
                  (    -1         -1          0      )
                  (     0          0         -1      )

 cart.    s(10) = ( -0.5000000 -0.8660254  0.0000000 )
                  (  0.8660254 -0.5000000  0.0000000 )
                  (  0.0000000  0.0000000 -1.0000000 )


      isym = 11     inv. 180 deg rotation - cryst. axis [0,1,0]  

 cryst.   s(11) = (     1          1          0      )
                  (     0         -1          0      )
                  (     0          0          1      )

 cart.    s(11) = (  0.5000000  0.8660254  0.0000000 )
                  (  0.8660254 -0.5000000  0.0000000 )
                  (  0.0000000  0.0000000  1.0000000 )


      isym = 12     inv. 180 deg rotation - cryst. axis [1,1,0]  

 cryst.   s(12) = (     0         -1          0      )
                  (    -1          0          0      )
                  (     0          0          1      )

 cart.    s(12) = (  0.5000000 -0.8660254  0.0000000 )
                  ( -0.8660254 -0.5000000  0.0000000 )
                  (  0.0000000  0.0000000  1.0000000 )


     point group D_3h (-62m)
     there are  6 classes
     the character table:

       E     2C3   3C2   s_h   2S3   3s_v 
A'_1   1.00  1.00  1.00  1.00  1.00  1.00
A'_2   1.00  1.00 -1.00  1.00  1.00 -1.00
E'     2.00 -1.00  0.00  2.00 -1.00  0.00
A''1   1.00  1.00  1.00 -1.00 -1.00 -1.00
A''2   1.00  1.00 -1.00 -1.00 -1.00  1.00
E''    2.00 -1.00  0.00 -2.00  1.00  0.00

     the symmetry operations in each class and the name of the first element:

     E        1
          identity                                               
     2C3      3    4
          120 deg rotation - cryst. axis [0,0,1]                 
     3C2      2    6    5
          180 deg rotation - cart. axis [0,1,0]                  
     s_h      7
          inv. 180 deg rotation - cart. axis [0,0,1]             
     2S3      9   10
          inv.  60 deg rotation - cryst. axis [0,0,1]            
     3s_v     8   11   12
          inv. 180 deg rotation - cart. axis [1,0,0]             

   Cartesian axes

     site n.     atom                  positions (alat units)
         1        Mo     tau(   1) = (   0.0000000   0.5773502   3.3660064  )
         2        S      tau(   2) = (   0.5000000   0.2886751   3.8613563  )
         3        S      tau(   3) = (   0.5000000   0.2886751   2.8706565  )

     Fixed atoms
     site n.  direction
         1    0   0   0
         2    0   0   1
         3    0   0   1

   Crystallographic axes

     site n.     atom                  positions (cryst. coord.)
         1        Mo     tau(   1) = (  0.3333333  0.6666666  0.5000000  )
         2        S      tau(   2) = (  0.6666667  0.3333333  0.5735812  )
         3        S      tau(   3) = (  0.6666667  0.3333333  0.4264188  )

     number of k points=    13
                       cart. coord. in units 2pi/alat
        k(    1) = (   0.0000000   0.0000000   0.0742720), wk =   0.1538462
        k(    2) = (  -0.0000000   0.0000000  -0.0742720), wk =   0.1538462
        k(    3) = (   0.0000000   0.0000000   0.0000000), wk =   0.1538462
        k(    4) = (   0.3333333   0.5773503   0.0742720), wk =   0.1538462
        k(    5) = (  -0.3333333  -0.5773503  -0.0742720), wk =   0.1538462
        k(    6) = (   0.3333333   0.5773503  -0.0742720), wk =   0.1538462
        k(    7) = (  -0.3333333  -0.5773503   0.0742720), wk =   0.1538462
        k(    8) = (   0.3333333   0.5773503   0.0000000), wk =   0.1538462
        k(    9) = (  -0.3333333  -0.5773503   0.0000000), wk =   0.1538462
        k(   10) = (   0.5000000   0.2886751   0.0742720), wk =   0.1538462
        k(   11) = (  -0.5000000  -0.2886751  -0.0742720), wk =   0.1538462
        k(   12) = (   0.5000000   0.2886751   0.0000000), wk =   0.1538462
        k(   13) = (  -0.5000000  -0.2886751   0.0000000), wk =   0.1538462

                       cryst. coord.
        k(    1) = (   0.0000000   0.0000000   0.5000000), wk =   0.1538462
        k(    2) = (   0.0000000   0.0000000  -0.5000000), wk =   0.1538462
        k(    3) = (   0.0000000   0.0000000   0.0000000), wk =   0.1538462
        k(    4) = (   0.3333333   0.3333333   0.5000000), wk =   0.1538462
        k(    5) = (  -0.3333333  -0.3333333  -0.5000000), wk =   0.1538462
        k(    6) = (   0.3333333   0.3333333  -0.5000000), wk =   0.1538462
        k(    7) = (  -0.3333333  -0.3333333   0.5000000), wk =   0.1538462
        k(    8) = (   0.3333333   0.3333333   0.0000000), wk =   0.1538462
        k(    9) = (  -0.3333333  -0.3333333   0.0000000), wk =   0.1538462
        k(   10) = (   0.5000000   0.0000000   0.5000000), wk =   0.1538462
        k(   11) = (  -0.5000000   0.0000000  -0.5000000), wk =   0.1538462
        k(   12) = (   0.5000000   0.0000000   0.0000000), wk =   0.1538462
        k(   13) = (  -0.5000000   0.0000000   0.0000000), wk =   0.1538462

     Dense  grid:   118115 G-vectors     FFT dimensions: (  36,  36, 240)

     Dynamical RAM for                 wfc:       5.64 MB

     Dynamical RAM for     wfc (w. buffer):       5.64 MB

     Dynamical RAM for           str. fact:       0.45 MB

     Dynamical RAM for           local pot:       0.00 MB

     Dynamical RAM for          nlocal pot:       1.52 MB

     Dynamical RAM for                qrad:       2.87 MB

     Dynamical RAM for          rho,v,vnew:       1.57 MB

     Dynamical RAM for           G-vectors:       0.96 MB

     Dynamical RAM for          h,s,v(r/c):       1.83 MB

     Dynamical RAM for          <psi|beta>:       0.16 MB

     Dynamical RAM for                 psi:      11.27 MB

     Dynamical RAM for                hpsi:      11.27 MB

     Dynamical RAM for      wfcinit/wfcrot:      12.19 MB

     Estimated static dynamical RAM per process >      15.16 MB

     Estimated max dynamical RAM per process >      39.70 MB

     Estimated total dynamical RAM >       2.48 GB
 ----2D----2D----2D----2D----2D----2D----2D----2D----2D----2D----2D----2D
  The code is running with the 2D cutoff
  Please refer to:
  Sohier, T., Calandra, M., & Mauri, F. (2017), 
  Density functional perturbation theory for gated two-dimensional heterostructures:
  Theoretical developments and application to flexural phonons in graphene.
  Physical Review B, 96(7), 75448. https://doi.org/10.1103/PhysRevB.96.075448
 ----2D----2D----2D----2D----2D----2D----2D----2D----2D----2D----2D----2D

     The potential is recalculated from file :
     ./tmp/MoS2.save/charge-density

     Starting wfcs are   18 randomized atomic wfcs +  182 random wfcs

     Band Structure Calculation
     Davidson diagonalization with overlap

     Computing kpt #:     1  of     2 on this pool
     total cpu time spent up to now is       26.8 secs

     Computing kpt #:     2  of     2 on this pool
     total cpu time spent up to now is       37.7 secs

     ethr =  3.85E-09,  avg # of iterations = 35.3

     total cpu time spent up to now is       39.4 secs

     End of band structure calculation

          k = 0.0000 0.0000 0.0743 ( 14898 PWs)   bands (ev):

   -66.6868 -40.8920 -40.6290 -40.6290 -20.1838 -18.8200 -11.7313  -8.5914
    -8.5914  -7.8013  -7.4349  -7.4348  -6.0269  -3.0800  -3.0800  -2.8033
    -2.8033  -0.3379  -0.1580   0.4551   2.1855   2.3413   3.1403   4.8468
     4.8468   5.3480   5.9937   6.8700   6.8700   7.1695   9.4767  10.0966
    10.1897  10.1897  10.5118  10.5118  10.5928  12.4036  13.9512  14.4165
    14.6876  17.2480  17.2480  17.2801  17.6418  18.8691  18.8691  19.3446
    19.4795  19.5766  19.5766  19.7308  19.7308  19.9415  20.2765  20.5771
    20.5771  20.9128  21.5011  21.5011  21.6979  21.9218  21.9218  22.1140
    22.2367  22.2367  22.3811  22.4653  22.6829  22.6829  22.9347  24.3554
    24.4162  24.4162  24.4180  24.4180  24.7207  25.2719  25.5248  25.5248
    25.6512  25.6512  26.3622  26.6947  27.3118  27.3118  27.8156  27.8156
    28.0134  28.1381  28.7515  28.9948  28.9948  29.2809  29.6073  29.6073
    30.8924  30.8924  30.9210  30.9523  31.3874  31.3874  31.6441  31.6441
    31.7274  32.5648  32.9568  33.6315  33.6315  34.0209  34.1004  34.1251
    34.1251  34.7907  35.0445  35.0445  36.1643  36.4328  36.4328  36.4428
    36.4613  36.4613  36.8804  37.3393  37.3393  37.7135  37.9583  37.9583
    38.8065  39.3367  39.3367  40.0390  40.2046  40.2046  40.6444  40.6444
    40.6768  41.2504  41.3133  41.3928  41.3928  41.6536  41.6536  42.2078
    42.7939  43.0531  43.0531  43.9817  44.6362  44.6362  44.9431  45.5535
    45.8495  45.8495  46.6578  46.7308  46.7308  46.8766  46.8766  47.1136
    48.0721  48.6967  49.0896  49.4986  49.4986  50.2063  50.2719  50.2719
    50.5047  50.5047  50.6179  51.7674  51.7674  51.9665  51.9665  52.0737
    53.0908  53.4655  53.4655  53.9251  54.7916  54.7916  54.9884  55.6297
    55.6525  55.6525  55.9072  56.4531  56.6540  56.6540  56.6789  57.0923
    57.0923  57.4068  57.5058  57.5058  58.6362  58.7838  59.0898  59.0899

     occupation numbers 
     1.0000   1.0000   1.0000   1.0000   1.0000   1.0000   1.0000   1.0000
     1.0000   1.0000   1.0000   1.0000   1.0000   0.0000   0.0000   0.0000
     0.0000   0.0000   0.0000   0.0000   0.0000   0.0000   0.0000   0.0000
     0.0000   0.0000   0.0000   0.0000   0.0000   0.0000   0.0000   0.0000
     0.0000   0.0000   0.0000   0.0000   0.0000   0.0000   0.0000   0.0000
     0.0000   0.0000   0.0000   0.0000   0.0000   0.0000   0.0000   0.0000
     0.0000   0.0000   0.0000   0.0000   0.0000   0.0000   0.0000   0.0000
     0.0000   0.0000   0.0000   0.0000   0.0000   0.0000   0.0000   0.0000
     0.0000   0.0000   0.0000   0.0000   0.0000   0.0000   0.0000   0.0000
     0.0000   0.0000   0.0000   0.0000   0.0000   0.0000   0.0000   0.0000
     0.0000   0.0000   0.0000   0.0000   0.0000   0.0000   0.0000   0.0000
     0.0000   0.0000   0.0000   0.0000   0.0000   0.0000   0.0000   0.0000
     0.0000   0.0000   0.0000   0.0000   0.0000   0.0000   0.0000   0.0000
     0.0000   0.0000   0.0000   0.0000   0.0000   0.0000   0.0000   0.0000
     0.0000   0.0000   0.0000   0.0000   0.0000   0.0000   0.0000   0.0000
     0.0000   0.0000   0.0000   0.0000   0.0000   0.0000   0.0000   0.0000
     0.0000   0.0000   0.0000   0.0000   0.0000   0.0000   0.0000   0.0000
     0.0000   0.0000   0.0000   0.0000   0.0000   0.0000   0.0000   0.0000
     0.0000   0.0000   0.0000   0.0000   0.0000   0.0000   0.0000   0.0000
     0.0000   0.0000   0.0000   0.0000   0.0000   0.0000   0.0000   0.0000
     0.0000   0.0000   0.0000   0.0000   0.0000   0.0000   0.0000   0.0000
     0.0000   0.0000   0.0000   0.0000   0.0000   0.0000   0.0000   0.0000
     0.0000   0.0000   0.0000   0.0000   0.0000   0.0000   0.0000   0.0000
     0.0000   0.0000   0.0000   0.0000   0.0000   0.0000   0.0000   0.0000
     0.0000   0.0000   0.0000   0.0000   0.0000   0.0000   0.0000   0.0000

          k =-0.0000 0.0000-0.0743 ( 14898 PWs)   bands (ev):

   -66.6868 -40.8920 -40.6290 -40.6290 -20.1838 -18.8200 -11.7313  -8.5914
    -8.5914  -7.8013  -7.4349  -7.4348  -6.0269  -3.0800  -3.0800  -2.8033
    -2.8033  -0.3379  -0.1580   0.4551   2.1855   2.3413   3.1403   4.8468
     4.8468   5.3480   5.9937   6.8700   6.8700   7.1695   9.4767  10.0966
    10.1897  10.1897  10.5118  10.5118  10.5928  12.4036  13.9512  14.4165
    14.6876  17.2480  17.2480  17.2801  17.6418  18.8691  18.8691  19.3446
    19.4795  19.5766  19.5766  19.7308  19.7308  19.9415  20.2765  20.5771
    20.5771  20.9128  21.5011  21.5011  21.6979  21.9218  21.9218  22.1140
    22.2367  22.2367  22.3811  22.4653  22.6829  22.6829  22.9347  24.3554
    24.4162  24.4162  24.4180  24.4180  24.7207  25.2719  25.5248  25.5248
    25.6512  25.6512  26.3622  26.6947  27.3118  27.3118  27.8156  27.8156
    28.0134  28.1381  28.7515  28.9948  28.9948  29.2809  29.6073  29.6073
    30.8924  30.8924  30.9210  30.9523  31.3874  31.3874  31.6441  31.6441
    31.7274  32.5648  32.9568  33.6315  33.6315  34.0209  34.1004  34.1251
    34.1251  34.7907  35.0445  35.0445  36.1643  36.4328  36.4328  36.4428
    36.4613  36.4613  36.8804  37.3393  37.3393  37.7135  37.9583  37.9583
    38.8065  39.3367  39.3367  40.0390  40.2046  40.2046  40.6444  40.6444
    40.6768  41.2504  41.3133  41.3928  41.3928  41.6536  41.6536  42.2078
    42.7939  43.0531  43.0531  43.9817  44.6362  44.6362  44.9431  45.5535
    45.8495  45.8495  46.6578  46.7308  46.7308  46.8766  46.8766  47.1136
    48.0721  48.6967  49.0896  49.4986  49.4986  50.2063  50.2719  50.2719
    50.5047  50.5047  50.6179  51.7674  51.7674  51.9665  51.9665  52.0737
    53.0908  53.4655  53.4655  53.9251  54.7916  54.7916  54.9884  55.6297
    55.6525  55.6525  55.9072  56.4531  56.6540  56.6540  56.6789  57.0923
    57.0923  57.4068  57.5058  57.5058  58.6362  58.7838  59.0898  59.0899

     occupation numbers 
     1.0000   1.0000   1.0000   1.0000   1.0000   1.0000   1.0000   1.0000
     1.0000   1.0000   1.0000   1.0000   1.0000   0.0000   0.0000   0.0000
     0.0000   0.0000   0.0000   0.0000   0.0000   0.0000   0.0000   0.0000
     0.0000   0.0000   0.0000   0.0000   0.0000   0.0000   0.0000   0.0000
     0.0000   0.0000   0.0000   0.0000   0.0000   0.0000   0.0000   0.0000
     0.0000   0.0000   0.0000   0.0000   0.0000   0.0000   0.0000   0.0000
     0.0000   0.0000   0.0000   0.0000   0.0000   0.0000   0.0000   0.0000
     0.0000   0.0000   0.0000   0.0000   0.0000   0.0000   0.0000   0.0000
     0.0000   0.0000   0.0000   0.0000   0.0000   0.0000   0.0000   0.0000
     0.0000   0.0000   0.0000   0.0000   0.0000   0.0000   0.0000   0.0000
     0.0000   0.0000   0.0000   0.0000   0.0000   0.0000   0.0000   0.0000
     0.0000   0.0000   0.0000   0.0000   0.0000   0.0000   0.0000   0.0000
     0.0000   0.0000   0.0000   0.0000   0.0000   0.0000   0.0000   0.0000
     0.0000   0.0000   0.0000   0.0000   0.0000   0.0000   0.0000   0.0000
     0.0000   0.0000   0.0000   0.0000   0.0000   0.0000   0.0000   0.0000
     0.0000   0.0000   0.0000   0.0000   0.0000   0.0000   0.0000   0.0000
     0.0000   0.0000   0.0000   0.0000   0.0000   0.0000   0.0000   0.0000
     0.0000   0.0000   0.0000   0.0000   0.0000   0.0000   0.0000   0.0000
     0.0000   0.0000   0.0000   0.0000   0.0000   0.0000   0.0000   0.0000
     0.0000   0.0000   0.0000   0.0000   0.0000   0.0000   0.0000   0.0000
     0.0000   0.0000   0.0000   0.0000   0.0000   0.0000   0.0000   0.0000
     0.0000   0.0000   0.0000   0.0000   0.0000   0.0000   0.0000   0.0000
     0.0000   0.0000   0.0000   0.0000   0.0000   0.0000   0.0000   0.0000
     0.0000   0.0000   0.0000   0.0000   0.0000   0.0000   0.0000   0.0000
     0.0000   0.0000   0.0000   0.0000   0.0000   0.0000   0.0000   0.0000

          k = 0.0000 0.0000 0.0000 ( 14903 PWs)   bands (ev):

   -66.6868 -40.8920 -40.6290 -40.6290 -20.1838 -18.8200 -11.7313  -8.5914
    -8.5914  -7.8013  -7.4349  -7.4348  -6.0269  -3.0800  -3.0800  -2.8033
    -2.8033  -0.3380  -0.1580   0.4551   2.1851   2.3419   3.1403   4.8468
     4.8468   5.3454   5.9984   6.8700   6.8700   7.1677   9.4568  10.1080
    10.1897  10.1897  10.5118  10.5118  10.6294  12.3353  13.9645  14.2165
    15.2500  16.2590  17.2480  17.2480  18.8691  18.8691  18.8939  19.1821
    19.5765  19.5765  19.6042  19.7165  19.7308  19.7308  20.2588  20.2960
    20.5770  20.5770  21.5013  21.5013  21.7125  21.9045  21.9215  21.9215
    22.2371  22.2371  22.2618  22.6824  22.6824  22.8745  23.7140  24.1726
    24.4168  24.4168  24.4177  24.4177  24.7232  25.1410  25.5223  25.5223
    25.6544  25.6544  25.7488  26.7014  27.3052  27.3052  27.8234  27.8234
    27.8845  28.6569  28.7419  28.9815  28.9815  29.6305  29.6305  30.0699
    30.0923  30.8725  30.8725  31.0854  31.4467  31.4467  31.5705  31.5705
    31.7274  32.2828  33.2285  33.3169  33.8521  33.8521  33.8750  33.8750
    34.5953  34.6687  35.5259  35.5259  35.5709  35.5709  36.1642  36.7185
    36.7185  37.0138  37.3676  37.4074  37.4074  37.8104  38.2412  38.6414
    38.6414  38.7764  38.7764  38.9323  39.8174  39.8174  40.6595  40.8558
    40.8558  41.5526  41.5526  41.6637  41.7526  41.8740  41.8740  42.2078
    42.6320  42.7509  42.7509  44.7503  44.7745  44.8874  44.8874  45.5535
    45.6737  45.6737  46.3784  46.3784  46.6611  46.8337  47.3532  47.3688
    47.3688  48.5074  48.7300  49.0892  49.0892  50.1394  50.1394  50.8214
    50.8214  50.9171  51.5966  52.1467  52.1467  52.1838  52.4652  52.4652
    52.9024  52.9024  53.2527  53.9217  53.9217  54.1677  54.1716  54.9884
    55.3247  55.6007  55.7796  55.7796  56.8973  56.8973  57.5956  57.6231
    57.6231  57.9914  57.9914  58.7763  58.7838  58.9910  59.0124  59.0278

     occupation numbers 
     1.0000   1.0000   1.0000   1.0000   1.0000   1.0000   1.0000   1.0000
     1.0000   1.0000   1.0000   1.0000   1.0000   0.0000   0.0000   0.0000
     0.0000   0.0000   0.0000   0.0000   0.0000   0.0000   0.0000   0.0000
     0.0000   0.0000   0.0000   0.0000   0.0000   0.0000   0.0000   0.0000
     0.0000   0.0000   0.0000   0.0000   0.0000   0.0000   0.0000   0.0000
     0.0000   0.0000   0.0000   0.0000   0.0000   0.0000   0.0000   0.0000
     0.0000   0.0000   0.0000   0.0000   0.0000   0.0000   0.0000   0.0000
     0.0000   0.0000   0.0000   0.0000   0.0000   0.0000   0.0000   0.0000
     0.0000   0.0000   0.0000   0.0000   0.0000   0.0000   0.0000   0.0000
     0.0000   0.0000   0.0000   0.0000   0.0000   0.0000   0.0000   0.0000
     0.0000   0.0000   0.0000   0.0000   0.0000   0.0000   0.0000   0.0000
     0.0000   0.0000   0.0000   0.0000   0.0000   0.0000   0.0000   0.0000
     0.0000   0.0000   0.0000   0.0000   0.0000   0.0000   0.0000   0.0000
     0.0000   0.0000   0.0000   0.0000   0.0000   0.0000   0.0000   0.0000
     0.0000   0.0000   0.0000   0.0000   0.0000   0.0000   0.0000   0.0000
     0.0000   0.0000   0.0000   0.0000   0.0000   0.0000   0.0000   0.0000
     0.0000   0.0000   0.0000   0.0000   0.0000   0.0000   0.0000   0.0000
     0.0000   0.0000   0.0000   0.0000   0.0000   0.0000   0.0000   0.0000
     0.0000   0.0000   0.0000   0.0000   0.0000   0.0000   0.0000   0.0000
     0.0000   0.0000   0.0000   0.0000   0.0000   0.0000   0.0000   0.0000
     0.0000   0.0000   0.0000   0.0000   0.0000   0.0000   0.0000   0.0000
     0.0000   0.0000   0.0000   0.0000   0.0000   0.0000   0.0000   0.0000
     0.0000   0.0000   0.0000   0.0000   0.0000   0.0000   0.0000   0.0000
     0.0000   0.0000   0.0000   0.0000   0.0000   0.0000   0.0000   0.0000
     0.0000   0.0000   0.0000   0.0000   0.0000   0.0000   0.0000   0.0000

          k = 0.3333 0.5774 0.0743 ( 14754 PWs)   bands (ev):

   -66.6365 -40.9516 -40.9019 -40.7933 -17.8786 -17.8511 -11.5510 -10.6848
   -10.1610  -9.5346  -8.9084  -8.1397  -5.9683  -4.1736  -2.9071  -2.2593
    -0.8513   1.3283   1.6225   3.6468   4.6229   5.3761   5.7140   5.9549
     6.0298   6.3941   6.9600   7.2030   7.4665   7.4740   7.4959   7.8325
     8.3984   9.1745   9.4442   9.6611   9.8692  10.5409  10.9145  11.6856
    12.5940  12.8400  13.4521  13.4642  13.7725  14.1668  14.5979  16.0205
    17.4191  17.6275  17.9283  18.0522  18.0777  18.9767  19.0912  19.5841
    19.7381  20.0907  20.6935  21.0791  21.5644  21.6462  21.8985  22.1032
    22.5486  22.6635  23.1152  23.4367  23.5314  24.4431  24.8385  24.9382
    25.1222  25.8567  26.4662  26.5388  26.7016  26.7801  26.9055  27.1944
    27.2892  28.0718  28.2982  28.5673  28.6711  28.7045  29.0957  29.2704
    29.7218  29.7673  29.7738  29.8506  30.5500  30.8677  30.9006  31.3136
    32.2551  32.3718  32.4111  32.5962  32.8275  33.1270  33.3488  33.4427
    33.4838  33.8214  34.3521  34.3776  35.4179  35.6590  35.7231  35.8480
    36.6985  36.9487  37.0281  37.1382  37.1942  37.7158  37.7689  38.5380
    38.7568  38.9796  39.0428  39.0466  39.6451  39.9194  40.8938  41.0670
    41.0687  41.4253  41.6854  42.0643  42.0948  42.5702  43.0675  43.1342
    43.6257  43.7767  44.0550  44.5858  44.7866  45.0425  45.0570  45.2386
    45.4903  45.5170  46.0250  46.0651  46.0707  46.3906  46.6151  46.6531
    46.9467  47.1422  47.3332  47.4162  47.5379  47.5757  47.8518  48.0662
    48.0872  48.3938  48.3963  48.4444  48.5658  48.5662  48.7222  48.8440
    49.0473  49.4192  49.5723  49.6867  49.7513  49.8745  49.9273  50.2157
    50.3867  50.4434  50.6597  50.9265  50.9391  51.5016  51.5459  51.6105
    51.7159  52.1743  52.3189  52.3886  52.7501  53.1038  53.1505  53.2250
    53.3657  53.7511  53.7684  54.1192  54.1428  54.1894  54.5084  54.5874

     occupation numbers 
     1.0000   1.0000   1.0000   1.0000   1.0000   1.0000   1.0000   1.0000
     1.0000   1.0000   1.0000   1.0000   1.0000   0.0000   0.0000   0.0000
     0.0000   0.0000   0.0000   0.0000   0.0000   0.0000   0.0000   0.0000
     0.0000   0.0000   0.0000   0.0000   0.0000   0.0000   0.0000   0.0000
     0.0000   0.0000   0.0000   0.0000   0.0000   0.0000   0.0000   0.0000
     0.0000   0.0000   0.0000   0.0000   0.0000   0.0000   0.0000   0.0000
     0.0000   0.0000   0.0000   0.0000   0.0000   0.0000   0.0000   0.0000
     0.0000   0.0000   0.0000   0.0000   0.0000   0.0000   0.0000   0.0000
     0.0000   0.0000   0.0000   0.0000   0.0000   0.0000   0.0000   0.0000
     0.0000   0.0000   0.0000   0.0000   0.0000   0.0000   0.0000   0.0000
     0.0000   0.0000   0.0000   0.0000   0.0000   0.0000   0.0000   0.0000
     0.0000   0.0000   0.0000   0.0000   0.0000   0.0000   0.0000   0.0000
     0.0000   0.0000   0.0000   0.0000   0.0000   0.0000   0.0000   0.0000
     0.0000   0.0000   0.0000   0.0000   0.0000   0.0000   0.0000   0.0000
     0.0000   0.0000   0.0000   0.0000   0.0000   0.0000   0.0000   0.0000
     0.0000   0.0000   0.0000   0.0000   0.0000   0.0000   0.0000   0.0000
     0.0000   0.0000   0.0000   0.0000   0.0000   0.0000   0.0000   0.0000
     0.0000   0.0000   0.0000   0.0000   0.0000   0.0000   0.0000   0.0000
     0.0000   0.0000   0.0000   0.0000   0.0000   0.0000   0.0000   0.0000
     0.0000   0.0000   0.0000   0.0000   0.0000   0.0000   0.0000   0.0000
     0.0000   0.0000   0.0000   0.0000   0.0000   0.0000   0.0000   0.0000
     0.0000   0.0000   0.0000   0.0000   0.0000   0.0000   0.0000   0.0000
     0.0000   0.0000   0.0000   0.0000   0.0000   0.0000   0.0000   0.0000
     0.0000   0.0000   0.0000   0.0000   0.0000   0.0000   0.0000   0.0000
     0.0000   0.0000   0.0000   0.0000   0.0000   0.0000   0.0000   0.0000

          k =-0.3333-0.5774-0.0743 ( 14754 PWs)   bands (ev):

   -66.6365 -40.9516 -40.9019 -40.7933 -17.8786 -17.8511 -11.5510 -10.6848
   -10.1610  -9.5346  -8.9084  -8.1397  -5.9683  -4.1736  -2.9071  -2.2593
    -0.8513   1.3283   1.6225   3.6468   4.6229   5.3761   5.7140   5.9549
     6.0298   6.3941   6.9600   7.2030   7.4665   7.4740   7.4959   7.8325
     8.3984   9.1745   9.4442   9.6611   9.8692  10.5409  10.9145  11.6856
    12.5940  12.8400  13.4521  13.4642  13.7725  14.1668  14.5979  16.0205
    17.4191  17.6275  17.9283  18.0522  18.0777  18.9767  19.0912  19.5841
    19.7381  20.0907  20.6935  21.0791  21.5644  21.6462  21.8985  22.1032
    22.5486  22.6635  23.1152  23.4367  23.5314  24.4431  24.8385  24.9382
    25.1222  25.8567  26.4662  26.5388  26.7016  26.7801  26.9055  27.1944
    27.2892  28.0718  28.2982  28.5673  28.6711  28.7045  29.0957  29.2704
    29.7218  29.7673  29.7738  29.8506  30.5500  30.8677  30.9006  31.3136
    32.2551  32.3718  32.4111  32.5962  32.8275  33.1270  33.3488  33.4427
    33.4838  33.8214  34.3521  34.3776  35.4179  35.6590  35.7231  35.8480
    36.6985  36.9487  37.0281  37.1382  37.1942  37.7158  37.7689  38.5380
    38.7568  38.9796  39.0428  39.0466  39.6451  39.9194  40.8938  41.0670
    41.0687  41.4253  41.6854  42.0643  42.0948  42.5702  43.0675  43.1342
    43.6257  43.7767  44.0550  44.5858  44.7866  45.0425  45.0570  45.2386
    45.4903  45.5170  46.0250  46.0651  46.0707  46.3906  46.6151  46.6531
    46.9467  47.1422  47.3332  47.4162  47.5379  47.5757  47.8518  48.0662
    48.0872  48.3938  48.3963  48.4444  48.5658  48.5662  48.7222  48.8440
    49.0473  49.4192  49.5723  49.6867  49.7513  49.8745  49.9273  50.2157
    50.3867  50.4434  50.6597  50.9265  50.9391  51.5016  51.5459  51.6105
    51.7159  52.1743  52.3189  52.3886  52.7501  53.1038  53.1505  53.2250
    53.3657  53.7511  53.7684  54.1192  54.1428  54.1894  54.5084  54.5874

     occupation numbers 
     1.0000   1.0000   1.0000   1.0000   1.0000   1.0000   1.0000   1.0000
     1.0000   1.0000   1.0000   1.0000   1.0000   0.0000   0.0000   0.0000
     0.0000   0.0000   0.0000   0.0000   0.0000   0.0000   0.0000   0.0000
     0.0000   0.0000   0.0000   0.0000   0.0000   0.0000   0.0000   0.0000
     0.0000   0.0000   0.0000   0.0000   0.0000   0.0000   0.0000   0.0000
     0.0000   0.0000   0.0000   0.0000   0.0000   0.0000   0.0000   0.0000
     0.0000   0.0000   0.0000   0.0000   0.0000   0.0000   0.0000   0.0000
     0.0000   0.0000   0.0000   0.0000   0.0000   0.0000   0.0000   0.0000
     0.0000   0.0000   0.0000   0.0000   0.0000   0.0000   0.0000   0.0000
     0.0000   0.0000   0.0000   0.0000   0.0000   0.0000   0.0000   0.0000
     0.0000   0.0000   0.0000   0.0000   0.0000   0.0000   0.0000   0.0000
     0.0000   0.0000   0.0000   0.0000   0.0000   0.0000   0.0000   0.0000
     0.0000   0.0000   0.0000   0.0000   0.0000   0.0000   0.0000   0.0000
     0.0000   0.0000   0.0000   0.0000   0.0000   0.0000   0.0000   0.0000
     0.0000   0.0000   0.0000   0.0000   0.0000   0.0000   0.0000   0.0000
     0.0000   0.0000   0.0000   0.0000   0.0000   0.0000   0.0000   0.0000
     0.0000   0.0000   0.0000   0.0000   0.0000   0.0000   0.0000   0.0000
     0.0000   0.0000   0.0000   0.0000   0.0000   0.0000   0.0000   0.0000
     0.0000   0.0000   0.0000   0.0000   0.0000   0.0000   0.0000   0.0000
     0.0000   0.0000   0.0000   0.0000   0.0000   0.0000   0.0000   0.0000
     0.0000   0.0000   0.0000   0.0000   0.0000   0.0000   0.0000   0.0000
     0.0000   0.0000   0.0000   0.0000   0.0000   0.0000   0.0000   0.0000
     0.0000   0.0000   0.0000   0.0000   0.0000   0.0000   0.0000   0.0000
     0.0000   0.0000   0.0000   0.0000   0.0000   0.0000   0.0000   0.0000
     0.0000   0.0000   0.0000   0.0000   0.0000   0.0000   0.0000   0.0000

          k = 0.3333 0.5774-0.0743 ( 14754 PWs)   bands (ev):

   -66.6365 -40.9516 -40.9019 -40.7933 -17.8786 -17.8511 -11.5510 -10.6848
   -10.1610  -9.5346  -8.9084  -8.1397  -5.9683  -4.1736  -2.9071  -2.2593
    -0.8513   1.3283   1.6225   3.6468   4.6229   5.3761   5.7140   5.9549
     6.0298   6.3941   6.9600   7.2030   7.4665   7.4740   7.4959   7.8325
     8.3984   9.1745   9.4442   9.6611   9.8692  10.5409  10.9145  11.6856
    12.5940  12.8400  13.4521  13.4642  13.7725  14.1668  14.5979  16.0205
    17.4191  17.6275  17.9283  18.0522  18.0777  18.9767  19.0912  19.5841
    19.7381  20.0907  20.6935  21.0791  21.5644  21.6462  21.8985  22.1032
    22.5486  22.6635  23.1152  23.4367  23.5314  24.4431  24.8385  24.9382
    25.1222  25.8567  26.4662  26.5388  26.7016  26.7801  26.9055  27.1944
    27.2892  28.0718  28.2982  28.5673  28.6711  28.7045  29.0957  29.2704
    29.7218  29.7673  29.7738  29.8506  30.5500  30.8677  30.9006  31.3136
    32.2551  32.3718  32.4111  32.5962  32.8275  33.1270  33.3488  33.4427
    33.4838  33.8214  34.3521  34.3776  35.4179  35.6590  35.7231  35.8480
    36.6985  36.9487  37.0281  37.1382  37.1942  37.7158  37.7689  38.5380
    38.7568  38.9796  39.0428  39.0466  39.6451  39.9194  40.8938  41.0670
    41.0687  41.4253  41.6854  42.0643  42.0948  42.5702  43.0675  43.1342
    43.6257  43.7767  44.0550  44.5858  44.7866  45.0425  45.0570  45.2386
    45.4903  45.5170  46.0250  46.0651  46.0707  46.3906  46.6151  46.6531
    46.9467  47.1422  47.3332  47.4162  47.5379  47.5757  47.8518  48.0662
    48.0872  48.3938  48.3963  48.4444  48.5658  48.5662  48.7222  48.8440
    49.0473  49.4192  49.5723  49.6867  49.7513  49.8745  49.9273  50.2157
    50.3867  50.4434  50.6597  50.9265  50.9391  51.5016  51.5459  51.6105
    51.7159  52.1743  52.3189  52.3886  52.7501  53.1038  53.1505  53.2250
    53.3657  53.7511  53.7684  54.1192  54.1428  54.1894  54.5084  54.5874

     occupation numbers 
     1.0000   1.0000   1.0000   1.0000   1.0000   1.0000   1.0000   1.0000
     1.0000   1.0000   1.0000   1.0000   1.0000   0.0000   0.0000   0.0000
     0.0000   0.0000   0.0000   0.0000   0.0000   0.0000   0.0000   0.0000
     0.0000   0.0000   0.0000   0.0000   0.0000   0.0000   0.0000   0.0000
     0.0000   0.0000   0.0000   0.0000   0.0000   0.0000   0.0000   0.0000
     0.0000   0.0000   0.0000   0.0000   0.0000   0.0000   0.0000   0.0000
     0.0000   0.0000   0.0000   0.0000   0.0000   0.0000   0.0000   0.0000
     0.0000   0.0000   0.0000   0.0000   0.0000   0.0000   0.0000   0.0000
     0.0000   0.0000   0.0000   0.0000   0.0000   0.0000   0.0000   0.0000
     0.0000   0.0000   0.0000   0.0000   0.0000   0.0000   0.0000   0.0000
     0.0000   0.0000   0.0000   0.0000   0.0000   0.0000   0.0000   0.0000
     0.0000   0.0000   0.0000   0.0000   0.0000   0.0000   0.0000   0.0000
     0.0000   0.0000   0.0000   0.0000   0.0000   0.0000   0.0000   0.0000
     0.0000   0.0000   0.0000   0.0000   0.0000   0.0000   0.0000   0.0000
     0.0000   0.0000   0.0000   0.0000   0.0000   0.0000   0.0000   0.0000
     0.0000   0.0000   0.0000   0.0000   0.0000   0.0000   0.0000   0.0000
     0.0000   0.0000   0.0000   0.0000   0.0000   0.0000   0.0000   0.0000
     0.0000   0.0000   0.0000   0.0000   0.0000   0.0000   0.0000   0.0000
     0.0000   0.0000   0.0000   0.0000   0.0000   0.0000   0.0000   0.0000
     0.0000   0.0000   0.0000   0.0000   0.0000   0.0000   0.0000   0.0000
     0.0000   0.0000   0.0000   0.0000   0.0000   0.0000   0.0000   0.0000
     0.0000   0.0000   0.0000   0.0000   0.0000   0.0000   0.0000   0.0000
     0.0000   0.0000   0.0000   0.0000   0.0000   0.0000   0.0000   0.0000
     0.0000   0.0000   0.0000   0.0000   0.0000   0.0000   0.0000   0.0000
     0.0000   0.0000   0.0000   0.0000   0.0000   0.0000   0.0000   0.0000

          k =-0.3333-0.5774 0.0743 ( 14754 PWs)   bands (ev):

   -66.6365 -40.9516 -40.9019 -40.7933 -17.8786 -17.8511 -11.5510 -10.6848
   -10.1610  -9.5346  -8.9084  -8.1397  -5.9683  -4.1736  -2.9071  -2.2593
    -0.8513   1.3283   1.6225   3.6468   4.6229   5.3761   5.7140   5.9549
     6.0298   6.3941   6.9600   7.2030   7.4665   7.4740   7.4959   7.8325
     8.3984   9.1745   9.4442   9.6611   9.8692  10.5409  10.9145  11.6856
    12.5940  12.8400  13.4521  13.4642  13.7725  14.1668  14.5979  16.0205
    17.4191  17.6275  17.9283  18.0522  18.0777  18.9767  19.0912  19.5841
    19.7381  20.0907  20.6935  21.0791  21.5644  21.6462  21.8985  22.1032
    22.5486  22.6635  23.1152  23.4367  23.5314  24.4431  24.8385  24.9382
    25.1222  25.8567  26.4662  26.5388  26.7016  26.7801  26.9055  27.1944
    27.2892  28.0718  28.2982  28.5673  28.6711  28.7045  29.0957  29.2704
    29.7218  29.7673  29.7738  29.8506  30.5500  30.8677  30.9006  31.3136
    32.2551  32.3718  32.4111  32.5962  32.8275  33.1270  33.3488  33.4427
    33.4838  33.8214  34.3521  34.3776  35.4179  35.6590  35.7231  35.8480
    36.6985  36.9487  37.0281  37.1382  37.1942  37.7158  37.7689  38.5380
    38.7568  38.9796  39.0428  39.0466  39.6451  39.9194  40.8938  41.0670
    41.0687  41.4253  41.6854  42.0643  42.0948  42.5702  43.0675  43.1342
    43.6257  43.7767  44.0550  44.5858  44.7866  45.0425  45.0570  45.2386
    45.4903  45.5170  46.0250  46.0651  46.0707  46.3906  46.6151  46.6531
    46.9467  47.1422  47.3332  47.4162  47.5379  47.5757  47.8518  48.0662
    48.0872  48.3938  48.3963  48.4444  48.5658  48.5662  48.7222  48.8440
    49.0473  49.4192  49.5723  49.6867  49.7513  49.8745  49.9273  50.2157
    50.3867  50.4434  50.6597  50.9265  50.9391  51.5016  51.5459  51.6105
    51.7159  52.1743  52.3189  52.3886  52.7501  53.1038  53.1505  53.2250
    53.3657  53.7511  53.7684  54.1192  54.1428  54.1894  54.5084  54.5874

     occupation numbers 
     1.0000   1.0000   1.0000   1.0000   1.0000   1.0000   1.0000   1.0000
     1.0000   1.0000   1.0000   1.0000   1.0000   0.0000   0.0000   0.0000
     0.0000   0.0000   0.0000   0.0000   0.0000   0.0000   0.0000   0.0000
     0.0000   0.0000   0.0000   0.0000   0.0000   0.0000   0.0000   0.0000
     0.0000   0.0000   0.0000   0.0000   0.0000   0.0000   0.0000   0.0000
     0.0000   0.0000   0.0000   0.0000   0.0000   0.0000   0.0000   0.0000
     0.0000   0.0000   0.0000   0.0000   0.0000   0.0000   0.0000   0.0000
     0.0000   0.0000   0.0000   0.0000   0.0000   0.0000   0.0000   0.0000
     0.0000   0.0000   0.0000   0.0000   0.0000   0.0000   0.0000   0.0000
     0.0000   0.0000   0.0000   0.0000   0.0000   0.0000   0.0000   0.0000
     0.0000   0.0000   0.0000   0.0000   0.0000   0.0000   0.0000   0.0000
     0.0000   0.0000   0.0000   0.0000   0.0000   0.0000   0.0000   0.0000
     0.0000   0.0000   0.0000   0.0000   0.0000   0.0000   0.0000   0.0000
     0.0000   0.0000   0.0000   0.0000   0.0000   0.0000   0.0000   0.0000
     0.0000   0.0000   0.0000   0.0000   0.0000   0.0000   0.0000   0.0000
     0.0000   0.0000   0.0000   0.0000   0.0000   0.0000   0.0000   0.0000
     0.0000   0.0000   0.0000   0.0000   0.0000   0.0000   0.0000   0.0000
     0.0000   0.0000   0.0000   0.0000   0.0000   0.0000   0.0000   0.0000
     0.0000   0.0000   0.0000   0.0000   0.0000   0.0000   0.0000   0.0000
     0.0000   0.0000   0.0000   0.0000   0.0000   0.0000   0.0000   0.0000
     0.0000   0.0000   0.0000   0.0000   0.0000   0.0000   0.0000   0.0000
     0.0000   0.0000   0.0000   0.0000   0.0000   0.0000   0.0000   0.0000
     0.0000   0.0000   0.0000   0.0000   0.0000   0.0000   0.0000   0.0000
     0.0000   0.0000   0.0000   0.0000   0.0000   0.0000   0.0000   0.0000
     0.0000   0.0000   0.0000   0.0000   0.0000   0.0000   0.0000   0.0000

          k = 0.3333 0.5774 0.0000 ( 14760 PWs)   bands (ev):

   -66.6365 -40.9516 -40.9019 -40.7933 -17.8786 -17.8511 -11.5510 -10.6848
   -10.1610  -9.5346  -8.9084  -8.1397  -5.9683  -4.1736  -2.9071  -2.2593
    -0.8513   1.3283   1.6225   3.6468   4.6229   5.3761   5.7140   5.9549
     6.0298   6.3941   6.9600   7.2029   7.4665   7.4740   7.4958   7.8326
     8.3987   9.1741   9.4436   9.6603   9.8701  10.5421  10.9157  11.6837
    12.5904  12.8397  13.4580  13.4583  13.7787  14.1755  14.5895  16.0023
    17.4611  17.6822  17.8638  17.9946  18.1254  19.0122  19.0497  19.5827
    19.6505  20.1070  20.9538  21.2066  21.3346  21.4262  22.0164  22.0627
    22.4065  22.6376  23.6587  23.6781  23.8061  23.8434  23.9375  25.2270
    25.4152  25.9579  26.4326  26.6587  26.6917  26.9196  27.2173  27.2907
    27.4135  27.7415  27.8203  27.9455  28.7078  29.0308  29.0993  29.1397
    29.4315  29.6242  30.2989  30.4280  30.5321  30.8726  31.0608  31.6174
    31.9222  32.2144  32.5413  32.5764  32.5852  33.1050  33.1327  33.1406
    33.5375  33.6267  34.5600  34.8406  35.1324  35.8034  35.8181  35.9905
    36.7199  36.7255  36.7995  36.8897  37.7189  37.9797  38.3784  38.5699
    38.6864  38.7731  39.0471  39.2894  39.3998  39.4468  39.5571  40.8300
    41.4081  41.8467  42.0507  42.3513  42.5769  42.6393  43.0865  43.1085
    43.5340  43.7320  43.7971  44.2417  44.8421  45.1159  45.4474  45.6329
    45.6643  45.7684  45.8299  45.9963  46.0022  46.1174  46.3236  46.8419
    46.8936  47.0483  47.0605  47.0608  47.2191  47.6848  47.7121  47.8767
    48.1351  48.2354  48.3476  48.4278  48.6026  48.6096  48.7971  48.9082
    49.1225  49.1491  49.5828  49.6837  49.9432  50.0641  50.1616  50.3886
    50.6338  50.6989  50.9213  51.2266  51.2825  51.3697  51.5989  51.8006
    51.8349  52.0802  52.1470  52.6046  52.6176  52.6352  53.0353  53.0355
    53.1165  53.2897  53.4557  53.9976  54.1283  54.4661  54.5999  54.6955

     occupation numbers 
     1.0000   1.0000   1.0000   1.0000   1.0000   1.0000   1.0000   1.0000
     1.0000   1.0000   1.0000   1.0000   1.0000   0.0000   0.0000   0.0000
     0.0000   0.0000   0.0000   0.0000   0.0000   0.0000   0.0000   0.0000
     0.0000   0.0000   0.0000   0.0000   0.0000   0.0000   0.0000   0.0000
     0.0000   0.0000   0.0000   0.0000   0.0000   0.0000   0.0000   0.0000
     0.0000   0.0000   0.0000   0.0000   0.0000   0.0000   0.0000   0.0000
     0.0000   0.0000   0.0000   0.0000   0.0000   0.0000   0.0000   0.0000
     0.0000   0.0000   0.0000   0.0000   0.0000   0.0000   0.0000   0.0000
     0.0000   0.0000   0.0000   0.0000   0.0000   0.0000   0.0000   0.0000
     0.0000   0.0000   0.0000   0.0000   0.0000   0.0000   0.0000   0.0000
     0.0000   0.0000   0.0000   0.0000   0.0000   0.0000   0.0000   0.0000
     0.0000   0.0000   0.0000   0.0000   0.0000   0.0000   0.0000   0.0000
     0.0000   0.0000   0.0000   0.0000   0.0000   0.0000   0.0000   0.0000
     0.0000   0.0000   0.0000   0.0000   0.0000   0.0000   0.0000   0.0000
     0.0000   0.0000   0.0000   0.0000   0.0000   0.0000   0.0000   0.0000
     0.0000   0.0000   0.0000   0.0000   0.0000   0.0000   0.0000   0.0000
     0.0000   0.0000   0.0000   0.0000   0.0000   0.0000   0.0000   0.0000
     0.0000   0.0000   0.0000   0.0000   0.0000   0.0000   0.0000   0.0000
     0.0000   0.0000   0.0000   0.0000   0.0000   0.0000   0.0000   0.0000
     0.0000   0.0000   0.0000   0.0000   0.0000   0.0000   0.0000   0.0000
     0.0000   0.0000   0.0000   0.0000   0.0000   0.0000   0.0000   0.0000
     0.0000   0.0000   0.0000   0.0000   0.0000   0.0000   0.0000   0.0000
     0.0000   0.0000   0.0000   0.0000   0.0000   0.0000   0.0000   0.0000
     0.0000   0.0000   0.0000   0.0000   0.0000   0.0000   0.0000   0.0000
     0.0000   0.0000   0.0000   0.0000   0.0000   0.0000   0.0000   0.0000

          k =-0.3333-0.5774 0.0000 ( 14760 PWs)   bands (ev):

   -66.6365 -40.9516 -40.9019 -40.7933 -17.8786 -17.8511 -11.5510 -10.6848
   -10.1610  -9.5346  -8.9084  -8.1397  -5.9683  -4.1736  -2.9071  -2.2593
    -0.8513   1.3283   1.6225   3.6468   4.6229   5.3761   5.7140   5.9549
     6.0298   6.3941   6.9600   7.2029   7.4665   7.4740   7.4958   7.8326
     8.3987   9.1741   9.4436   9.6603   9.8701  10.5421  10.9157  11.6837
    12.5904  12.8397  13.4580  13.4583  13.7787  14.1755  14.5895  16.0023
    17.4611  17.6822  17.8638  17.9946  18.1254  19.0122  19.0497  19.5827
    19.6505  20.1070  20.9538  21.2066  21.3346  21.4262  22.0164  22.0627
    22.4065  22.6376  23.6587  23.6781  23.8061  23.8434  23.9375  25.2270
    25.4152  25.9579  26.4326  26.6587  26.6917  26.9196  27.2173  27.2907
    27.4135  27.7415  27.8203  27.9455  28.7078  29.0308  29.0993  29.1397
    29.4315  29.6242  30.2989  30.4280  30.5321  30.8726  31.0608  31.6174
    31.9222  32.2144  32.5413  32.5764  32.5852  33.1050  33.1327  33.1406
    33.5375  33.6267  34.5600  34.8406  35.1324  35.8034  35.8181  35.9905
    36.7199  36.7255  36.7995  36.8897  37.7189  37.9797  38.3784  38.5699
    38.6864  38.7731  39.0471  39.2894  39.3998  39.4468  39.5571  40.8300
    41.4081  41.8467  42.0507  42.3513  42.5769  42.6393  43.0865  43.1085
    43.5340  43.7320  43.7971  44.2417  44.8421  45.1159  45.4474  45.6329
    45.6643  45.7684  45.8299  45.9963  46.0022  46.1174  46.3236  46.8419
    46.8936  47.0483  47.0605  47.0608  47.2191  47.6848  47.7121  47.8767
    48.1351  48.2354  48.3476  48.4278  48.6026  48.6096  48.7971  48.9082
    49.1225  49.1491  49.5828  49.6837  49.9432  50.0641  50.1616  50.3886
    50.6338  50.6989  50.9213  51.2266  51.2825  51.3697  51.5989  51.8006
    51.8349  52.0802  52.1470  52.6046  52.6176  52.6352  53.0353  53.0355
    53.1165  53.2897  53.4557  53.9976  54.1283  54.4661  54.5999  54.6955

     occupation numbers 
     1.0000   1.0000   1.0000   1.0000   1.0000   1.0000   1.0000   1.0000
     1.0000   1.0000   1.0000   1.0000   1.0000   0.0000   0.0000   0.0000
     0.0000   0.0000   0.0000   0.0000   0.0000   0.0000   0.0000   0.0000
     0.0000   0.0000   0.0000   0.0000   0.0000   0.0000   0.0000   0.0000
     0.0000   0.0000   0.0000   0.0000   0.0000   0.0000   0.0000   0.0000
     0.0000   0.0000   0.0000   0.0000   0.0000   0.0000   0.0000   0.0000
     0.0000   0.0000   0.0000   0.0000   0.0000   0.0000   0.0000   0.0000
     0.0000   0.0000   0.0000   0.0000   0.0000   0.0000   0.0000   0.0000
     0.0000   0.0000   0.0000   0.0000   0.0000   0.0000   0.0000   0.0000
     0.0000   0.0000   0.0000   0.0000   0.0000   0.0000   0.0000   0.0000
     0.0000   0.0000   0.0000   0.0000   0.0000   0.0000   0.0000   0.0000
     0.0000   0.0000   0.0000   0.0000   0.0000   0.0000   0.0000   0.0000
     0.0000   0.0000   0.0000   0.0000   0.0000   0.0000   0.0000   0.0000
     0.0000   0.0000   0.0000   0.0000   0.0000   0.0000   0.0000   0.0000
     0.0000   0.0000   0.0000   0.0000   0.0000   0.0000   0.0000   0.0000
     0.0000   0.0000   0.0000   0.0000   0.0000   0.0000   0.0000   0.0000
     0.0000   0.0000   0.0000   0.0000   0.0000   0.0000   0.0000   0.0000
     0.0000   0.0000   0.0000   0.0000   0.0000   0.0000   0.0000   0.0000
     0.0000   0.0000   0.0000   0.0000   0.0000   0.0000   0.0000   0.0000
     0.0000   0.0000   0.0000   0.0000   0.0000   0.0000   0.0000   0.0000
     0.0000   0.0000   0.0000   0.0000   0.0000   0.0000   0.0000   0.0000
     0.0000   0.0000   0.0000   0.0000   0.0000   0.0000   0.0000   0.0000
     0.0000   0.0000   0.0000   0.0000   0.0000   0.0000   0.0000   0.0000
     0.0000   0.0000   0.0000   0.0000   0.0000   0.0000   0.0000   0.0000
     0.0000   0.0000   0.0000   0.0000   0.0000   0.0000   0.0000   0.0000

          k = 0.5000 0.2887 0.0743 ( 14712 PWs)   bands (ev):

   -66.6421 -41.0566 -40.8042 -40.7277 -18.1706 -18.0283 -11.9065 -10.8985
   -10.1252  -9.1700  -7.8724  -6.8567  -6.6192  -3.5747  -3.0646  -2.0192
    -1.4955   0.2043   1.8593   2.3398   3.1063   3.7816   4.5792   5.1674
     5.3471   5.6839   5.8210   7.0185   7.4091   7.9221   8.4281   9.6673
    10.1887  10.2465  10.9290  11.3614  11.7102  12.1027  12.4429  13.0424
    13.5444  13.6835  14.0544  14.1299  14.7065  15.2158  15.8680  16.2334
    16.2479  16.6592  16.8395  17.1544  17.6480  17.6871  18.3419  18.5954
    18.8285  18.8354  19.3151  19.3876  20.3515  20.8971  20.9982  21.3057
    21.6748  22.1678  22.2053  22.6416  23.1925  23.3512  24.1272  24.6659
    25.3242  25.5091  25.6392  25.9709  26.5174  26.6340  26.8666  26.9146
    27.3659  27.8610  27.8976  28.1060  29.2251  29.7845  30.1654  30.2011
    30.4911  30.7221  30.9956  31.2289  32.2390  32.2790  32.5289  32.8185
    32.9879  33.0136  33.3526  33.5804  33.7491  34.0758  35.0158  35.0643
    35.1111  35.1753  35.3434  35.4037  35.8673  35.8736  36.2690  36.2751
    36.5184  36.5615  36.7953  36.9388  37.4495  37.6221  37.9112  38.0167
    38.0912  38.5087  38.6184  38.7480  39.0873  39.3152  39.8481  40.1842
    40.2420  40.4656  40.7078  41.1034  41.2706  41.3251  41.4561  41.8922
    42.0415  42.3345  42.4374  42.5999  43.1653  43.5169  43.7014  43.7447
    44.0568  44.0823  44.5149  44.5933  45.0145  45.2573  45.4935  45.7530
    45.9389  46.0761  46.1397  46.2647  46.4028  46.4931  46.5692  46.7958
    47.2902  47.5389  47.6551  47.7102  48.2285  48.4764  48.5319  48.6510
    48.9268  49.1982  49.2973  49.4197  49.5953  49.7522  49.9056  50.3269
    50.8063  50.9075  50.9521  51.2552  51.4019  51.5300  51.9544  52.3077
    52.3180  52.3393  52.8319  52.9080  52.9722  53.2383  53.3733  53.4848
    53.9919  54.0401  54.1220  54.2373  54.2665  54.4011  55.0362  55.8684

     occupation numbers 
     1.0000   1.0000   1.0000   1.0000   1.0000   1.0000   1.0000   1.0000
     1.0000   1.0000   1.0000   1.0000   1.0000   0.0000   0.0000   0.0000
     0.0000   0.0000   0.0000   0.0000   0.0000   0.0000   0.0000   0.0000
     0.0000   0.0000   0.0000   0.0000   0.0000   0.0000   0.0000   0.0000
     0.0000   0.0000   0.0000   0.0000   0.0000   0.0000   0.0000   0.0000
     0.0000   0.0000   0.0000   0.0000   0.0000   0.0000   0.0000   0.0000
     0.0000   0.0000   0.0000   0.0000   0.0000   0.0000   0.0000   0.0000
     0.0000   0.0000   0.0000   0.0000   0.0000   0.0000   0.0000   0.0000
     0.0000   0.0000   0.0000   0.0000   0.0000   0.0000   0.0000   0.0000
     0.0000   0.0000   0.0000   0.0000   0.0000   0.0000   0.0000   0.0000
     0.0000   0.0000   0.0000   0.0000   0.0000   0.0000   0.0000   0.0000
     0.0000   0.0000   0.0000   0.0000   0.0000   0.0000   0.0000   0.0000
     0.0000   0.0000   0.0000   0.0000   0.0000   0.0000   0.0000   0.0000
     0.0000   0.0000   0.0000   0.0000   0.0000   0.0000   0.0000   0.0000
     0.0000   0.0000   0.0000   0.0000   0.0000   0.0000   0.0000   0.0000
     0.0000   0.0000   0.0000   0.0000   0.0000   0.0000   0.0000   0.0000
     0.0000   0.0000   0.0000   0.0000   0.0000   0.0000   0.0000   0.0000
     0.0000   0.0000   0.0000   0.0000   0.0000   0.0000   0.0000   0.0000
     0.0000   0.0000   0.0000   0.0000   0.0000   0.0000   0.0000   0.0000
     0.0000   0.0000   0.0000   0.0000   0.0000   0.0000   0.0000   0.0000
     0.0000   0.0000   0.0000   0.0000   0.0000   0.0000   0.0000   0.0000
     0.0000   0.0000   0.0000   0.0000   0.0000   0.0000   0.0000   0.0000
     0.0000   0.0000   0.0000   0.0000   0.0000   0.0000   0.0000   0.0000
     0.0000   0.0000   0.0000   0.0000   0.0000   0.0000   0.0000   0.0000
     0.0000   0.0000   0.0000   0.0000   0.0000   0.0000   0.0000   0.0000

          k =-0.5000-0.2887-0.0743 ( 14712 PWs)   bands (ev):

   -66.6421 -41.0566 -40.8042 -40.7277 -18.1706 -18.0283 -11.9065 -10.8985
   -10.1252  -9.1700  -7.8724  -6.8567  -6.6192  -3.5747  -3.0646  -2.0192
    -1.4955   0.2043   1.8593   2.3398   3.1063   3.7816   4.5792   5.1674
     5.3471   5.6839   5.8210   7.0185   7.4091   7.9221   8.4281   9.6673
    10.1887  10.2465  10.9290  11.3614  11.7102  12.1027  12.4429  13.0424
    13.5444  13.6835  14.0544  14.1299  14.7065  15.2158  15.8680  16.2334
    16.2479  16.6592  16.8395  17.1544  17.6480  17.6871  18.3419  18.5954
    18.8285  18.8354  19.3151  19.3876  20.3515  20.8971  20.9982  21.3057
    21.6748  22.1678  22.2053  22.6416  23.1925  23.3512  24.1272  24.6659
    25.3242  25.5091  25.6392  25.9709  26.5174  26.6340  26.8666  26.9146
    27.3659  27.8610  27.8976  28.1060  29.2251  29.7845  30.1654  30.2011
    30.4911  30.7221  30.9956  31.2289  32.2390  32.2790  32.5289  32.8185
    32.9879  33.0136  33.3526  33.5804  33.7491  34.0758  35.0158  35.0643
    35.1111  35.1753  35.3434  35.4037  35.8673  35.8736  36.2690  36.2751
    36.5184  36.5615  36.7953  36.9388  37.4495  37.6221  37.9112  38.0167
    38.0912  38.5087  38.6184  38.7480  39.0873  39.3152  39.8481  40.1842
    40.2420  40.4656  40.7078  41.1034  41.2706  41.3251  41.4561  41.8922
    42.0415  42.3345  42.4374  42.5999  43.1653  43.5169  43.7014  43.7447
    44.0568  44.0823  44.5149  44.5933  45.0145  45.2573  45.4935  45.7530
    45.9389  46.0761  46.1397  46.2647  46.4028  46.4931  46.5692  46.7958
    47.2902  47.5389  47.6551  47.7102  48.2285  48.4764  48.5319  48.6510
    48.9268  49.1982  49.2973  49.4197  49.5953  49.7522  49.9056  50.3269
    50.8063  50.9075  50.9521  51.2552  51.4019  51.5300  51.9544  52.3077
    52.3180  52.3393  52.8319  52.9080  52.9722  53.2383  53.3733  53.4848
    53.9919  54.0401  54.1220  54.2373  54.2665  54.4011  55.0362  55.8684

     occupation numbers 
     1.0000   1.0000   1.0000   1.0000   1.0000   1.0000   1.0000   1.0000
     1.0000   1.0000   1.0000   1.0000   1.0000   0.0000   0.0000   0.0000
     0.0000   0.0000   0.0000   0.0000   0.0000   0.0000   0.0000   0.0000
     0.0000   0.0000   0.0000   0.0000   0.0000   0.0000   0.0000   0.0000
     0.0000   0.0000   0.0000   0.0000   0.0000   0.0000   0.0000   0.0000
     0.0000   0.0000   0.0000   0.0000   0.0000   0.0000   0.0000   0.0000
     0.0000   0.0000   0.0000   0.0000   0.0000   0.0000   0.0000   0.0000
     0.0000   0.0000   0.0000   0.0000   0.0000   0.0000   0.0000   0.0000
     0.0000   0.0000   0.0000   0.0000   0.0000   0.0000   0.0000   0.0000
     0.0000   0.0000   0.0000   0.0000   0.0000   0.0000   0.0000   0.0000
     0.0000   0.0000   0.0000   0.0000   0.0000   0.0000   0.0000   0.0000
     0.0000   0.0000   0.0000   0.0000   0.0000   0.0000   0.0000   0.0000
     0.0000   0.0000   0.0000   0.0000   0.0000   0.0000   0.0000   0.0000
     0.0000   0.0000   0.0000   0.0000   0.0000   0.0000   0.0000   0.0000
     0.0000   0.0000   0.0000   0.0000   0.0000   0.0000   0.0000   0.0000
     0.0000   0.0000   0.0000   0.0000   0.0000   0.0000   0.0000   0.0000
     0.0000   0.0000   0.0000   0.0000   0.0000   0.0000   0.0000   0.0000
     0.0000   0.0000   0.0000   0.0000   0.0000   0.0000   0.0000   0.0000
     0.0000   0.0000   0.0000   0.0000   0.0000   0.0000   0.0000   0.0000
     0.0000   0.0000   0.0000   0.0000   0.0000   0.0000   0.0000   0.0000
     0.0000   0.0000   0.0000   0.0000   0.0000   0.0000   0.0000   0.0000
     0.0000   0.0000   0.0000   0.0000   0.0000   0.0000   0.0000   0.0000
     0.0000   0.0000   0.0000   0.0000   0.0000   0.0000   0.0000   0.0000
     0.0000   0.0000   0.0000   0.0000   0.0000   0.0000   0.0000   0.0000
     0.0000   0.0000   0.0000   0.0000   0.0000   0.0000   0.0000   0.0000

          k = 0.5000 0.2887 0.0000 ( 14726 PWs)   bands (ev):

   -66.6421 -41.0566 -40.8042 -40.7277 -18.1706 -18.0283 -11.9065 -10.8985
   -10.1252  -9.1700  -7.8724  -6.8567  -6.6192  -3.5747  -3.0646  -2.0192
    -1.4955   0.2043   1.8593   2.3398   3.1063   3.7816   4.5792   5.1674
     5.3471   5.6838   5.8211   7.0189   7.4086   7.9215   8.4290   9.6673
    10.1867  10.2492  10.9259  11.3614  11.7137  12.1027  12.4466  13.0333
    13.5347  13.6902  14.0544  14.1423  14.7055  15.2159  15.8749  16.2332
    16.2345  16.7412  16.7597  17.0840  17.6877  17.7350  18.3417  18.5690
    18.8346  18.9111  19.2465  19.3876  20.3372  20.7723  21.1543  21.3106
    21.7209  22.1981  22.2074  22.3867  23.0015  23.9758  24.0784  24.6236
    25.1795  25.3643  25.6828  25.8929  26.4492  26.8645  26.8745  27.0065
    27.0705  27.4909  28.1435  28.8109  29.0436  29.7236  30.0809  30.2477
    30.2710  30.7670  30.9968  31.6092  31.7951  31.9282  32.5257  32.8411
    32.8862  32.9409  33.7355  33.9590  33.9728  34.1993  34.7388  34.9411
    35.1252  35.1931  35.3458  35.5598  35.6357  35.7770  36.0738  36.2792
    36.3590  36.7004  37.0282  37.2821  37.3664  37.6793  37.7328  37.9788
    38.1473  38.3110  38.8355  38.8605  38.9488  39.0899  39.5867  39.8609
    39.9978  40.6546  41.1337  41.1697  41.2815  41.4674  41.9103  42.0747
    42.1771  42.1985  42.6046  42.6111  43.1724  43.3347  43.5022  43.7354
    43.9202  44.0680  44.3556  44.6175  44.7536  45.0985  45.4095  45.6063
    45.7063  45.9509  46.0879  46.3996  46.5134  46.8048  46.9356  47.0314
    47.1870  47.2258  47.6155  47.8094  48.1465  48.5153  48.6554  48.9943
    49.0292  49.3710  49.4823  49.5214  49.6503  49.7919  49.7935  49.8776
    50.9505  50.9851  51.0778  51.2023  51.3914  51.5635  51.7376  51.7397
    51.9025  52.3172  52.4776  52.9339  52.9594  53.0353  53.3667  53.5665
    54.0468  54.3891  54.7508  54.7987  54.9171  55.0040  55.0489  55.0547

     occupation numbers 
     1.0000   1.0000   1.0000   1.0000   1.0000   1.0000   1.0000   1.0000
     1.0000   1.0000   1.0000   1.0000   1.0000   0.0000   0.0000   0.0000
     0.0000   0.0000   0.0000   0.0000   0.0000   0.0000   0.0000   0.0000
     0.0000   0.0000   0.0000   0.0000   0.0000   0.0000   0.0000   0.0000
     0.0000   0.0000   0.0000   0.0000   0.0000   0.0000   0.0000   0.0000
     0.0000   0.0000   0.0000   0.0000   0.0000   0.0000   0.0000   0.0000
     0.0000   0.0000   0.0000   0.0000   0.0000   0.0000   0.0000   0.0000
     0.0000   0.0000   0.0000   0.0000   0.0000   0.0000   0.0000   0.0000
     0.0000   0.0000   0.0000   0.0000   0.0000   0.0000   0.0000   0.0000
     0.0000   0.0000   0.0000   0.0000   0.0000   0.0000   0.0000   0.0000
     0.0000   0.0000   0.0000   0.0000   0.0000   0.0000   0.0000   0.0000
     0.0000   0.0000   0.0000   0.0000   0.0000   0.0000   0.0000   0.0000
     0.0000   0.0000   0.0000   0.0000   0.0000   0.0000   0.0000   0.0000
     0.0000   0.0000   0.0000   0.0000   0.0000   0.0000   0.0000   0.0000
     0.0000   0.0000   0.0000   0.0000   0.0000   0.0000   0.0000   0.0000
     0.0000   0.0000   0.0000   0.0000   0.0000   0.0000   0.0000   0.0000
     0.0000   0.0000   0.0000   0.0000   0.0000   0.0000   0.0000   0.0000
     0.0000   0.0000   0.0000   0.0000   0.0000   0.0000   0.0000   0.0000
     0.0000   0.0000   0.0000   0.0000   0.0000   0.0000   0.0000   0.0000
     0.0000   0.0000   0.0000   0.0000   0.0000   0.0000   0.0000   0.0000
     0.0000   0.0000   0.0000   0.0000   0.0000   0.0000   0.0000   0.0000
     0.0000   0.0000   0.0000   0.0000   0.0000   0.0000   0.0000   0.0000
     0.0000   0.0000   0.0000   0.0000   0.0000   0.0000   0.0000   0.0000
     0.0000   0.0000   0.0000   0.0000   0.0000   0.0000   0.0000   0.0000
     0.0000   0.0000   0.0000   0.0000   0.0000   0.0000   0.0000   0.0000

          k =-0.5000-0.2887 0.0000 ( 14726 PWs)   bands (ev):

   -66.6421 -41.0566 -40.8042 -40.7277 -18.1706 -18.0283 -11.9065 -10.8985
   -10.1252  -9.1700  -7.8724  -6.8567  -6.6192  -3.5747  -3.0646  -2.0192
    -1.4955   0.2043   1.8593   2.3398   3.1063   3.7816   4.5792   5.1674
     5.3471   5.6838   5.8211   7.0189   7.4086   7.9215   8.4290   9.6673
    10.1867  10.2492  10.9259  11.3614  11.7137  12.1027  12.4466  13.0333
    13.5347  13.6902  14.0544  14.1423  14.7055  15.2159  15.8749  16.2332
    16.2345  16.7412  16.7597  17.0840  17.6877  17.7350  18.3417  18.5690
    18.8346  18.9111  19.2465  19.3876  20.3372  20.7723  21.1543  21.3106
    21.7209  22.1981  22.2074  22.3867  23.0015  23.9758  24.0784  24.6236
    25.1795  25.3643  25.6828  25.8929  26.4492  26.8645  26.8745  27.0065
    27.0705  27.4909  28.1435  28.8109  29.0436  29.7236  30.0809  30.2477
    30.2710  30.7670  30.9968  31.6092  31.7951  31.9282  32.5257  32.8411
    32.8862  32.9409  33.7355  33.9590  33.9728  34.1993  34.7388  34.9411
    35.1252  35.1931  35.3458  35.5598  35.6357  35.7770  36.0738  36.2792
    36.3590  36.7004  37.0282  37.2821  37.3664  37.6793  37.7328  37.9788
    38.1473  38.3110  38.8355  38.8605  38.9488  39.0899  39.5867  39.8609
    39.9978  40.6546  41.1337  41.1697  41.2815  41.4674  41.9103  42.0747
    42.1771  42.1985  42.6046  42.6111  43.1724  43.3347  43.5022  43.7354
    43.9202  44.0680  44.3556  44.6175  44.7536  45.0985  45.4095  45.6063
    45.7063  45.9509  46.0879  46.3996  46.5134  46.8048  46.9356  47.0314
    47.1870  47.2258  47.6155  47.8094  48.1465  48.5153  48.6554  48.9943
    49.0292  49.3710  49.4823  49.5214  49.6503  49.7919  49.7935  49.8776
    50.9505  50.9851  51.0778  51.2023  51.3914  51.5635  51.7376  51.7397
    51.9025  52.3172  52.4776  52.9339  52.9594  53.0353  53.3667  53.5665
    54.0468  54.3891  54.7508  54.7987  54.9171  55.0040  55.0489  55.0547

     occupation numbers 
     1.0000   1.0000   1.0000   1.0000   1.0000   1.0000   1.0000   1.0000
     1.0000   1.0000   1.0000   1.0000   1.0000   0.0000   0.0000   0.0000
     0.0000   0.0000   0.0000   0.0000   0.0000   0.0000   0.0000   0.0000
     0.0000   0.0000   0.0000   0.0000   0.0000   0.0000   0.0000   0.0000
     0.0000   0.0000   0.0000   0.0000   0.0000   0.0000   0.0000   0.0000
     0.0000   0.0000   0.0000   0.0000   0.0000   0.0000   0.0000   0.0000
     0.0000   0.0000   0.0000   0.0000   0.0000   0.0000   0.0000   0.0000
     0.0000   0.0000   0.0000   0.0000   0.0000   0.0000   0.0000   0.0000
     0.0000   0.0000   0.0000   0.0000   0.0000   0.0000   0.0000   0.0000
     0.0000   0.0000   0.0000   0.0000   0.0000   0.0000   0.0000   0.0000
     0.0000   0.0000   0.0000   0.0000   0.0000   0.0000   0.0000   0.0000
     0.0000   0.0000   0.0000   0.0000   0.0000   0.0000   0.0000   0.0000
     0.0000   0.0000   0.0000   0.0000   0.0000   0.0000   0.0000   0.0000
     0.0000   0.0000   0.0000   0.0000   0.0000   0.0000   0.0000   0.0000
     0.0000   0.0000   0.0000   0.0000   0.0000   0.0000   0.0000   0.0000
     0.0000   0.0000   0.0000   0.0000   0.0000   0.0000   0.0000   0.0000
     0.0000   0.0000   0.0000   0.0000   0.0000   0.0000   0.0000   0.0000
     0.0000   0.0000   0.0000   0.0000   0.0000   0.0000   0.0000   0.0000
     0.0000   0.0000   0.0000   0.0000   0.0000   0.0000   0.0000   0.0000
     0.0000   0.0000   0.0000   0.0000   0.0000   0.0000   0.0000   0.0000
     0.0000   0.0000   0.0000   0.0000   0.0000   0.0000   0.0000   0.0000
     0.0000   0.0000   0.0000   0.0000   0.0000   0.0000   0.0000   0.0000
     0.0000   0.0000   0.0000   0.0000   0.0000   0.0000   0.0000   0.0000
     0.0000   0.0000   0.0000   0.0000   0.0000   0.0000   0.0000   0.0000
     0.0000   0.0000   0.0000   0.0000   0.0000   0.0000   0.0000   0.0000

     highest occupied, lowest unoccupied level (ev):    -5.9683   -4.1736

     Writing all to output data dir ./tmp/MoS2.save/ :
     XML data file, pseudopotentials, collected wavefunctions

     init_run     :      1.01s CPU      1.11s WALL (       1 calls)
     electrons    :     25.15s CPU     25.31s WALL (       1 calls)

     Called by init_run:
     wfcinit      :      0.00s CPU      0.00s WALL (       1 calls)
     wfcinit:atom :      0.00s CPU      0.00s WALL (       2 calls)
     wfcinit:wfcr :      0.66s CPU      0.70s WALL (       2 calls)
     potinit      :      0.03s CPU      0.07s WALL (       1 calls)
     hinit0       :      0.65s CPU      0.71s WALL (       1 calls)

     Called by electrons:
     c_bands      :     25.13s CPU     25.28s WALL (       1 calls)
     v_of_rho     :      0.03s CPU      0.03s WALL (       1 calls)
     v_h          :      0.00s CPU      0.00s WALL (       1 calls)
     v_xc         :      0.03s CPU      0.03s WALL (       1 calls)

     Called by c_bands:
     init_us_2    :      0.00s CPU      0.00s WALL (       2 calls)
     cegterg      :     21.17s CPU     21.26s WALL (       4 calls)

     Called by sum_band:

     Called by *egterg:
     cdiaghg      :      7.93s CPU      7.95s WALL (      75 calls)
     cegterg:over :      2.49s CPU      2.50s WALL (      73 calls)
     cegterg:upda :      1.44s CPU      1.46s WALL (      73 calls)
     cegterg:last :      2.60s CPU      2.60s WALL (      33 calls)
     cdiaghg:chol :      0.13s CPU      0.13s WALL (      75 calls)
     cdiaghg:inve :      0.13s CPU      0.13s WALL (      75 calls)
     cdiaghg:para :      0.98s CPU      0.98s WALL (     150 calls)
     h_psi        :      7.00s CPU      7.08s WALL (      79 calls)
     g_psi        :      0.04s CPU      0.04s WALL (      73 calls)

     Called by h_psi:
     h_psi:calbec :      0.23s CPU      0.26s WALL (      79 calls)
     vloc_psi     :      6.55s CPU      6.59s WALL (      79 calls)
                                        0.00s GPU  (      79 calls)
     add_vuspsi   :      0.20s CPU      0.20s WALL (      79 calls)

     General routines
     calbec       :      0.22s CPU      0.26s WALL (      79 calls)
     fft          :      0.61s CPU      0.66s WALL (      11 calls)
     fftw         :      5.91s CPU      5.94s WALL (   14008 calls)
     davcio       :      0.00s CPU      0.02s WALL (       4 calls)

     Parallel routines

     PWSCF        :     27.53s CPU     39.74s WALL


   This run was terminated on:  10:52:59  19Mar2026            

=------------------------------------------------------------------------------=
   JOB DONE.
=------------------------------------------------------------------------------=
