
     Program PWSCF v.7.5 starts on 13Mar2026 at  1: 5:42 
        Git branch: HEAD
        Last git commit: 770a0b2d12928a67048e2f3da8d10d057e52179e
        Last git commit date: Tue Aug 19 09:57:12 2025 +0000
        Last git commit subject: Merge branch 'QE-7.5-RC' into 'master'

     This program is part of the open-source Quantum ESPRESSO suite
     for quantum simulation of materials; please cite
         "P. Giannozzi et al., J. Phys.:Condens. Matter 21 395502 (2009);
         "P. Giannozzi et al., J. Phys.:Condens. Matter 29 465901 (2017);
         "P. Giannozzi et al., J. Chem. Phys. 152 154105 (2020);
          URL http://www.quantum-espresso.org", 
     in publications or presentations arising from this work. More details at
     http://www.quantum-espresso.org/quote

     Parallel version (MPI), running on    64 processors

     MPI processes distributed on     4 nodes
     243965 MiB available memory on the printing compute node when the environment starts

     Waiting for input...
     Reading input from standard input

     Current dimensions of program PWSCF are:
     Max number of different atomic species (ntypx) = 10
     Max number of k-points (npk) =  40000
     Max angular momentum in pseudopotentials (lmaxx) =  4

     File ./tmp/MoS2.md deleted, as requested

     File ./tmp/MoS2.bfgs deleted, as requested
     Message from routine setup:
     Dynamics, you should have no symmetries

     R & G space division:  proc/nbgrp/npool/nimage =      64
     Subspace diagonalization in iterative solution of the eigenvalue problem:
     a serial algorithm will be used


     Parallelization info
     --------------------
     sticks:   dense  smooth     PW     G-vecs:    dense   smooth      PW
     Min          30      12      3                 7282     1826     275
     Max          31      13      4                 7319     1855     314
     Sum        1945     769    223               467365   117995   18465

     Using Slab Decomposition



     bravais-lattice index     =            4
     lattice parameter (alat)  =       5.9413  a.u.
     unit-cell volume          =    1222.6725 (a.u.)^3
     number of atoms/cell      =            3
     number of atomic types    =            2
     number of electrons       =        26.00
     number of Kohn-Sham states=           13
     kinetic-energy cutoff     =      80.0000  Ry
     charge density cutoff     =     800.0000  Ry
     scf convergence threshold =      1.0E-15
     mixing beta               =       0.2000
     number of iterations used =            8  plain     mixing
     energy convergence thresh.=      1.0E-07
     force convergence thresh. =      1.0E-07
     Exchange-correlation= PBESOL
                           (   1   4  10   8   0   0   0)
     nstep                     =           50


     celldm(1)=   5.941254  celldm(2)=   0.000000  celldm(3)=   6.732015
     celldm(4)=   0.000000  celldm(5)=   0.000000  celldm(6)=   0.000000

     crystal axes: (cart. coord. in units of alat)
               a(1) = (   1.000000   0.000000   0.000000 )  
               a(2) = (  -0.500000   0.866025   0.000000 )  
               a(3) = (   0.000000   0.000000   6.732015 )  

     reciprocal axes: (cart. coord. in units 2 pi/alat)
               b(1) = (  1.000000  0.577350 -0.000000 )  
               b(2) = (  0.000000  1.154701  0.000000 )  
               b(3) = (  0.000000 -0.000000  0.148544 )  


     PseudoPot. # 1 for Mo read from file:
     ../pseudo/Mo.pbesol.dojo.upf
     MD5 check sum: c40353276b9086539cda6b9e5a66907b
     Pseudo is Norm-conserving + core correction, Zval = 14.0
     Generated using ONCVPSP code by D. R. Hamann
     Using radial grid of 1640 points,  6 beta functions with: 
                l(1) =   0
                l(2) =   0
                l(3) =   1
                l(4) =   1
                l(5) =   2
                l(6) =   2

     PseudoPot. # 2 for S  read from file:
     ../pseudo/S.pbesol.dojo.upf
     MD5 check sum: 501737efeeef1fb1c631cda521d4e019
     Pseudo is Norm-conserving + core correction, Zval =  6.0
     Generated using ONCVPSP code by D. R. Hamann
     Using radial grid of 1146 points,  6 beta functions with: 
                l(1) =   0
                l(2) =   0
                l(3) =   1
                l(4) =   1
                l(5) =   2
                l(6) =   2

     atomic species   valence    mass     pseudopotential
     Mo               14.00    95.95000     Mo( 1.00)
     S                 6.00    32.06500     S ( 1.00)

     12 Sym. Ops. (no inversion) found


                                    s                        frac. trans.

      isym =  1     identity                                     

 cryst.   s( 1) = (     1          0          0      )
                  (     0          1          0      )
                  (     0          0          1      )

 cart.    s( 1) = (  1.0000000  0.0000000  0.0000000 )
                  (  0.0000000  1.0000000  0.0000000 )
                  (  0.0000000  0.0000000  1.0000000 )


      isym =  2     180 deg rotation - cart. axis [0,1,0]        

 cryst.   s( 2) = (    -1          0          0      )
                  (     1          1          0      )
                  (     0          0         -1      )

 cart.    s( 2) = ( -1.0000000  0.0000000  0.0000000 )
                  (  0.0000000  1.0000000  0.0000000 )
                  (  0.0000000  0.0000000 -1.0000000 )


      isym =  3     120 deg rotation - cryst. axis [0,0,1]       

 cryst.   s( 3) = (     0          1          0      )
                  (    -1         -1          0      )
                  (     0          0          1      )

 cart.    s( 3) = ( -0.5000000 -0.8660254  0.0000000 )
                  (  0.8660254 -0.5000000  0.0000000 )
                  (  0.0000000  0.0000000  1.0000000 )


      isym =  4     120 deg rotation - cryst. axis [0,0,-1]      

 cryst.   s( 4) = (    -1         -1          0      )
                  (     1          0          0      )
                  (     0          0          1      )

 cart.    s( 4) = ( -0.5000000  0.8660254  0.0000000 )
                  ( -0.8660254 -0.5000000  0.0000000 )
                  (  0.0000000  0.0000000  1.0000000 )


      isym =  5     180 deg rotation - cryst. axis [1,-1,0]      

 cryst.   s( 5) = (     0         -1          0      )
                  (    -1          0          0      )
                  (     0          0         -1      )

 cart.    s( 5) = (  0.5000000 -0.8660254  0.0000000 )
                  ( -0.8660254 -0.5000000  0.0000000 )
                  (  0.0000000  0.0000000 -1.0000000 )


      isym =  6     180 deg rotation - cryst. axis [2,1,0]       

 cryst.   s( 6) = (     1          1          0      )
                  (     0         -1          0      )
                  (     0          0         -1      )

 cart.    s( 6) = (  0.5000000  0.8660254  0.0000000 )
                  (  0.8660254 -0.5000000  0.0000000 )
                  (  0.0000000  0.0000000 -1.0000000 )


      isym =  7     inv. 180 deg rotation - cart. axis [0,0,1]   

 cryst.   s( 7) = (     1          0          0      )
                  (     0          1          0      )
                  (     0          0         -1      )

 cart.    s( 7) = (  1.0000000  0.0000000  0.0000000 )
                  (  0.0000000  1.0000000  0.0000000 )
                  (  0.0000000  0.0000000 -1.0000000 )


      isym =  8     inv. 180 deg rotation - cart. axis [1,0,0]   

 cryst.   s( 8) = (    -1          0          0      )
                  (     1          1          0      )
                  (     0          0          1      )

 cart.    s( 8) = ( -1.0000000  0.0000000  0.0000000 )
                  (  0.0000000  1.0000000  0.0000000 )
                  (  0.0000000  0.0000000  1.0000000 )


      isym =  9     inv.  60 deg rotation - cryst. axis [0,0,1]  

 cryst.   s( 9) = (    -1         -1          0      )
                  (     1          0          0      )
                  (     0          0         -1      )

 cart.    s( 9) = ( -0.5000000  0.8660254  0.0000000 )
                  ( -0.8660254 -0.5000000  0.0000000 )
                  (  0.0000000  0.0000000 -1.0000000 )


      isym = 10     inv.  60 deg rotation - cryst. axis [0,0,-1] 

 cryst.   s(10) = (     0          1          0      )
                  (    -1         -1          0      )
                  (     0          0         -1      )

 cart.    s(10) = ( -0.5000000 -0.8660254  0.0000000 )
                  (  0.8660254 -0.5000000  0.0000000 )
                  (  0.0000000  0.0000000 -1.0000000 )


      isym = 11     inv. 180 deg rotation - cryst. axis [0,1,0]  

 cryst.   s(11) = (     1          1          0      )
                  (     0         -1          0      )
                  (     0          0          1      )

 cart.    s(11) = (  0.5000000  0.8660254  0.0000000 )
                  (  0.8660254 -0.5000000  0.0000000 )
                  (  0.0000000  0.0000000  1.0000000 )


      isym = 12     inv. 180 deg rotation - cryst. axis [1,1,0]  

 cryst.   s(12) = (     0         -1          0      )
                  (    -1          0          0      )
                  (     0          0          1      )

 cart.    s(12) = (  0.5000000 -0.8660254  0.0000000 )
                  ( -0.8660254 -0.5000000  0.0000000 )
                  (  0.0000000  0.0000000  1.0000000 )


     point group D_3h (-62m)
     there are  6 classes
     the character table:

       E     2C3   3C2   s_h   2S3   3s_v 
A'_1   1.00  1.00  1.00  1.00  1.00  1.00
A'_2   1.00  1.00 -1.00  1.00  1.00 -1.00
E'     2.00 -1.00  0.00  2.00 -1.00  0.00
A''1   1.00  1.00  1.00 -1.00 -1.00 -1.00
A''2   1.00  1.00 -1.00 -1.00 -1.00  1.00
E''    2.00 -1.00  0.00 -2.00  1.00  0.00

     the symmetry operations in each class and the name of the first element:

     E        1
          identity                                               
     2C3      3    4
          120 deg rotation - cryst. axis [0,0,1]                 
     3C2      2    6    5
          180 deg rotation - cart. axis [0,1,0]                  
     s_h      7
          inv. 180 deg rotation - cart. axis [0,0,1]             
     2S3      9   10
          inv.  60 deg rotation - cryst. axis [0,0,1]            
     3s_v     8   11   12
          inv. 180 deg rotation - cart. axis [1,0,0]             

   Cartesian axes

     site n.     atom                  positions (alat units)
         1        Mo     tau(   1) = (   0.0000000   0.5773502   3.3660074  )
         2        S      tau(   2) = (   0.5000000   0.2886751   3.8617060  )
         3        S      tau(   3) = (   0.5000000   0.2886751   2.8703088  )

     Fixed atoms
     site n.  direction
         1    0   0   0
         2    0   0   1
         3    0   0   1

   Crystallographic axes

     site n.     atom                  positions (cryst. coord.)
         1        Mo     tau(   1) = (  0.3333333  0.6666666  0.5000000  )
         2        S      tau(   2) = (  0.6666667  0.3333333  0.5736330  )
         3        S      tau(   3) = (  0.6666667  0.3333333  0.4263670  )

     number of k points=    48
                       cart. coord. in units 2pi/alat
        k(    1) = (   0.0000000   0.0000000   0.0000000), wk =   0.0045351
        k(    2) = (   0.0000000   0.0549857   0.0000000), wk =   0.0272109
        k(    3) = (   0.0000000   0.1099715   0.0000000), wk =   0.0272109
        k(    4) = (   0.0000000   0.1649572   0.0000000), wk =   0.0272109
        k(    5) = (   0.0000000   0.2199430   0.0000000), wk =   0.0272109
        k(    6) = (   0.0000000   0.2749287   0.0000000), wk =   0.0272109
        k(    7) = (   0.0000000   0.3299144   0.0000000), wk =   0.0272109
        k(    8) = (   0.0000000   0.3849002   0.0000000), wk =   0.0272109
        k(    9) = (   0.0000000   0.4398859   0.0000000), wk =   0.0272109
        k(   10) = (   0.0000000   0.4948717   0.0000000), wk =   0.0272109
        k(   11) = (   0.0000000   0.5498574   0.0000000), wk =   0.0272109
        k(   12) = (   0.0476190   0.0824786   0.0000000), wk =   0.0272109
        k(   13) = (   0.0476190   0.1374643   0.0000000), wk =   0.0544218
        k(   14) = (   0.0476190   0.1924501   0.0000000), wk =   0.0544218
        k(   15) = (   0.0476190   0.2474358   0.0000000), wk =   0.0544218
        k(   16) = (   0.0476190   0.3024216   0.0000000), wk =   0.0544218
        k(   17) = (   0.0476190   0.3574073   0.0000000), wk =   0.0544218
        k(   18) = (   0.0476190   0.4123930   0.0000000), wk =   0.0544218
        k(   19) = (   0.0476190   0.4673788   0.0000000), wk =   0.0544218
        k(   20) = (   0.0476190   0.5223645   0.0000000), wk =   0.0544218
        k(   21) = (   0.0476190   0.5773503   0.0000000), wk =   0.0272109
        k(   22) = (   0.0952381   0.1649572   0.0000000), wk =   0.0272109
        k(   23) = (   0.0952381   0.2199430   0.0000000), wk =   0.0544218
        k(   24) = (   0.0952381   0.2749287   0.0000000), wk =   0.0544218
        k(   25) = (   0.0952381   0.3299144   0.0000000), wk =   0.0544218
        k(   26) = (   0.0952381   0.3849002   0.0000000), wk =   0.0544218
        k(   27) = (   0.0952381   0.4398859   0.0000000), wk =   0.0544218
        k(   28) = (   0.0952381   0.4948717   0.0000000), wk =   0.0544218
        k(   29) = (   0.0952381   0.5498574   0.0000000), wk =   0.0544218
        k(   30) = (   0.1428571   0.2474358   0.0000000), wk =   0.0272109
        k(   31) = (   0.1428571   0.3024216   0.0000000), wk =   0.0544218
        k(   32) = (   0.1428571   0.3574073   0.0000000), wk =   0.0544218
        k(   33) = (   0.1428571   0.4123930   0.0000000), wk =   0.0544218
        k(   34) = (   0.1428571   0.4673788   0.0000000), wk =   0.0544218
        k(   35) = (   0.1428571   0.5223645   0.0000000), wk =   0.0544218
        k(   36) = (   0.1428571   0.5773503   0.0000000), wk =   0.0272109
        k(   37) = (   0.1904762   0.3299144   0.0000000), wk =   0.0272109
        k(   38) = (   0.1904762   0.3849002   0.0000000), wk =   0.0544218
        k(   39) = (   0.1904762   0.4398859   0.0000000), wk =   0.0544218
        k(   40) = (   0.1904762   0.4948717   0.0000000), wk =   0.0544218
        k(   41) = (   0.1904762   0.5498574   0.0000000), wk =   0.0544218
        k(   42) = (   0.2380952   0.4123930   0.0000000), wk =   0.0272109
        k(   43) = (   0.2380952   0.4673788   0.0000000), wk =   0.0544218
        k(   44) = (   0.2380952   0.5223645   0.0000000), wk =   0.0544218
        k(   45) = (   0.2380952   0.5773503   0.0000000), wk =   0.0272109
        k(   46) = (   0.2857143   0.4948717   0.0000000), wk =   0.0272109
        k(   47) = (   0.2857143   0.5498574   0.0000000), wk =   0.0544218
        k(   48) = (   0.3333333   0.5773503   0.0000000), wk =   0.0090703

                       cryst. coord.
        k(    1) = (   0.0000000   0.0000000   0.0000000), wk =   0.0045351
        k(    2) = (   0.0000000   0.0476190   0.0000000), wk =   0.0272109
        k(    3) = (   0.0000000   0.0952381   0.0000000), wk =   0.0272109
        k(    4) = (   0.0000000   0.1428571   0.0000000), wk =   0.0272109
        k(    5) = (   0.0000000   0.1904762   0.0000000), wk =   0.0272109
        k(    6) = (   0.0000000   0.2380952   0.0000000), wk =   0.0272109
        k(    7) = (   0.0000000   0.2857143   0.0000000), wk =   0.0272109
        k(    8) = (   0.0000000   0.3333333   0.0000000), wk =   0.0272109
        k(    9) = (   0.0000000   0.3809524   0.0000000), wk =   0.0272109
        k(   10) = (   0.0000000   0.4285714   0.0000000), wk =   0.0272109
        k(   11) = (   0.0000000   0.4761905   0.0000000), wk =   0.0272109
        k(   12) = (   0.0476190   0.0476190   0.0000000), wk =   0.0272109
        k(   13) = (   0.0476190   0.0952381   0.0000000), wk =   0.0544218
        k(   14) = (   0.0476190   0.1428571   0.0000000), wk =   0.0544218
        k(   15) = (   0.0476190   0.1904762   0.0000000), wk =   0.0544218
        k(   16) = (   0.0476190   0.2380952   0.0000000), wk =   0.0544218
        k(   17) = (   0.0476190   0.2857143   0.0000000), wk =   0.0544218
        k(   18) = (   0.0476190   0.3333333   0.0000000), wk =   0.0544218
        k(   19) = (   0.0476190   0.3809524   0.0000000), wk =   0.0544218
        k(   20) = (   0.0476190   0.4285714   0.0000000), wk =   0.0544218
        k(   21) = (   0.0476190   0.4761905   0.0000000), wk =   0.0272109
        k(   22) = (   0.0952381   0.0952381   0.0000000), wk =   0.0272109
        k(   23) = (   0.0952381   0.1428571   0.0000000), wk =   0.0544218
        k(   24) = (   0.0952381   0.1904762   0.0000000), wk =   0.0544218
        k(   25) = (   0.0952381   0.2380952   0.0000000), wk =   0.0544218
        k(   26) = (   0.0952381   0.2857143   0.0000000), wk =   0.0544218
        k(   27) = (   0.0952381   0.3333333   0.0000000), wk =   0.0544218
        k(   28) = (   0.0952381   0.3809524   0.0000000), wk =   0.0544218
        k(   29) = (   0.0952381   0.4285714   0.0000000), wk =   0.0544218
        k(   30) = (   0.1428571   0.1428571   0.0000000), wk =   0.0272109
        k(   31) = (   0.1428571   0.1904762   0.0000000), wk =   0.0544218
        k(   32) = (   0.1428571   0.2380952   0.0000000), wk =   0.0544218
        k(   33) = (   0.1428571   0.2857143   0.0000000), wk =   0.0544218
        k(   34) = (   0.1428571   0.3333333   0.0000000), wk =   0.0544218
        k(   35) = (   0.1428571   0.3809524   0.0000000), wk =   0.0544218
        k(   36) = (   0.1428571   0.4285714   0.0000000), wk =   0.0272109
        k(   37) = (   0.1904762   0.1904762   0.0000000), wk =   0.0272109
        k(   38) = (   0.1904762   0.2380952   0.0000000), wk =   0.0544218
        k(   39) = (   0.1904762   0.2857143   0.0000000), wk =   0.0544218
        k(   40) = (   0.1904762   0.3333333   0.0000000), wk =   0.0544218
        k(   41) = (   0.1904762   0.3809524   0.0000000), wk =   0.0544218
        k(   42) = (   0.2380952   0.2380952   0.0000000), wk =   0.0272109
        k(   43) = (   0.2380952   0.2857143   0.0000000), wk =   0.0544218
        k(   44) = (   0.2380952   0.3333333   0.0000000), wk =   0.0544218
        k(   45) = (   0.2380952   0.3809524   0.0000000), wk =   0.0272109
        k(   46) = (   0.2857143   0.2857143   0.0000000), wk =   0.0272109
        k(   47) = (   0.2857143   0.3333333   0.0000000), wk =   0.0544218
        k(   48) = (   0.3333333   0.3333333   0.0000000), wk =   0.0090703

     Dense  grid:   467365 G-vectors     FFT dimensions: (  54,  54, 375)

     Smooth grid:   117995 G-vectors     FFT dimensions: (  36,  36, 240)

     Dynamical RAM for                 wfc:       0.05 MB

     Dynamical RAM for     wfc (w. buffer):       2.24 MB

     Dynamical RAM for           str. fact:       0.22 MB

     Dynamical RAM for           local pot:       0.00 MB

     Dynamical RAM for          nlocal pot:       0.19 MB

     Dynamical RAM for                qrad:       4.54 MB

     Dynamical RAM for          rho,v,vnew:       0.73 MB

     Dynamical RAM for               rhoin:       0.24 MB

     Dynamical RAM for            rho*nmix:       1.78 MB

     Dynamical RAM for           G-vectors:       0.43 MB

     Dynamical RAM for          h,s,v(r/c):       0.03 MB

     Dynamical RAM for          <psi|beta>:       0.01 MB

     Dynamical RAM for                 psi:       0.09 MB

     Dynamical RAM for                hpsi:       0.09 MB

     Dynamical RAM for      wfcinit/wfcrot:       0.10 MB

     Estimated static dynamical RAM per process >       9.60 MB

     Estimated max dynamical RAM per process >      11.60 MB

     Estimated total dynamical RAM >     742.69 MB

     The initial density is read from file :
     ./tmp/MoS2.save/charge-density

     Starting wfcs are   18 randomized atomic wfcs

     total cpu time spent up to now is       23.4 secs

     per-process dynamical memory:    63.4 Mb

     Self-consistent Calculation

     iteration #  1     ecut=    80.00 Ry     beta= 0.20
     Davidson diagonalization with overlap

---- Real-time Memory Report at c_bands before calling an iterative solver
            79 MiB given to the printing process from OS
            62 MiB allocation reported by mallinfo(arena+hblkhd)
        243653 MiB available memory on the node where the printing process lives
------------------
     ethr =  1.00E-05,  avg # of iterations = 10.0

     total cpu time spent up to now is       26.5 secs

     total energy              =    -184.83165087 Ry
     estimated scf accuracy    <       0.00065960 Ry

     iteration #  2     ecut=    80.00 Ry     beta= 0.20
     Davidson diagonalization with overlap

---- Real-time Memory Report at c_bands before calling an iterative solver
            83 MiB given to the printing process from OS
            64 MiB allocation reported by mallinfo(arena+hblkhd)
        243617 MiB available memory on the node where the printing process lives
------------------
     ethr =  2.54E-06,  avg # of iterations =  4.1

     total cpu time spent up to now is       27.8 secs

     total energy              =    -184.83182221 Ry
     estimated scf accuracy    <       0.00003273 Ry

     iteration #  3     ecut=    80.00 Ry     beta= 0.20
     Davidson diagonalization with overlap

---- Real-time Memory Report at c_bands before calling an iterative solver
            84 MiB given to the printing process from OS
            64 MiB allocation reported by mallinfo(arena+hblkhd)
        243616 MiB available memory on the node where the printing process lives
------------------
     ethr =  1.26E-07,  avg # of iterations =  4.9

     total cpu time spent up to now is       29.3 secs

     total energy              =    -184.83180939 Ry
     estimated scf accuracy    <       0.00003348 Ry

     iteration #  4     ecut=    80.00 Ry     beta= 0.20
     Davidson diagonalization with overlap

---- Real-time Memory Report at c_bands before calling an iterative solver
            84 MiB given to the printing process from OS
            64 MiB allocation reported by mallinfo(arena+hblkhd)
        243615 MiB available memory on the node where the printing process lives
------------------
     ethr =  1.26E-07,  avg # of iterations =  5.9

     total cpu time spent up to now is       31.1 secs

     total energy              =    -184.83180456 Ry
     estimated scf accuracy    <       0.00023091 Ry

     iteration #  5     ecut=    80.00 Ry     beta= 0.20
     Davidson diagonalization with overlap

---- Real-time Memory Report at c_bands before calling an iterative solver
            85 MiB given to the printing process from OS
            65 MiB allocation reported by mallinfo(arena+hblkhd)
        243615 MiB available memory on the node where the printing process lives
------------------
     ethr =  1.26E-07,  avg # of iterations =  5.2

     total cpu time spent up to now is       32.7 secs

     total energy              =    -184.83182563 Ry
     estimated scf accuracy    <       0.00000536 Ry

     iteration #  6     ecut=    80.00 Ry     beta= 0.20
     Davidson diagonalization with overlap

---- Real-time Memory Report at c_bands before calling an iterative solver
            85 MiB given to the printing process from OS
            65 MiB allocation reported by mallinfo(arena+hblkhd)
        243615 MiB available memory on the node where the printing process lives
------------------
     ethr =  2.06E-08,  avg # of iterations =  6.4

     total cpu time spent up to now is       34.6 secs

     total energy              =    -184.83182719 Ry
     estimated scf accuracy    <       0.00004106 Ry

     iteration #  7     ecut=    80.00 Ry     beta= 0.20
     Davidson diagonalization with overlap

---- Real-time Memory Report at c_bands before calling an iterative solver
            85 MiB given to the printing process from OS
            65 MiB allocation reported by mallinfo(arena+hblkhd)
        243616 MiB available memory on the node where the printing process lives
------------------
     ethr =  2.06E-08,  avg # of iterations =  4.6

     total cpu time spent up to now is       36.1 secs

     total energy              =    -184.83182919 Ry
     estimated scf accuracy    <       0.00000373 Ry

     iteration #  8     ecut=    80.00 Ry     beta= 0.20
     Davidson diagonalization with overlap

---- Real-time Memory Report at c_bands before calling an iterative solver
            85 MiB given to the printing process from OS
            65 MiB allocation reported by mallinfo(arena+hblkhd)
        243616 MiB available memory on the node where the printing process lives
------------------
     ethr =  1.43E-08,  avg # of iterations =  4.5

     total cpu time spent up to now is       37.5 secs

     total energy              =    -184.83183026 Ry
     estimated scf accuracy    <       0.00000027 Ry

     iteration #  9     ecut=    80.00 Ry     beta= 0.20
     Davidson diagonalization with overlap

---- Real-time Memory Report at c_bands before calling an iterative solver
            85 MiB given to the printing process from OS
            65 MiB allocation reported by mallinfo(arena+hblkhd)
        243614 MiB available memory on the node where the printing process lives
------------------
     ethr =  1.03E-09,  avg # of iterations =  3.6

     total cpu time spent up to now is       38.7 secs

     total energy              =    -184.83183030 Ry
     estimated scf accuracy    <       0.00000023 Ry

     iteration # 10     ecut=    80.00 Ry     beta= 0.20
     Davidson diagonalization with overlap

---- Real-time Memory Report at c_bands before calling an iterative solver
            86 MiB given to the printing process from OS
            65 MiB allocation reported by mallinfo(arena+hblkhd)
        243607 MiB available memory on the node where the printing process lives
------------------
     ethr =  8.86E-10,  avg # of iterations =  1.1

     total cpu time spent up to now is       39.7 secs

     total energy              =    -184.83183028 Ry
     estimated scf accuracy    <       0.00000017 Ry

     iteration # 11     ecut=    80.00 Ry     beta= 0.20
     Davidson diagonalization with overlap

---- Real-time Memory Report at c_bands before calling an iterative solver
            86 MiB given to the printing process from OS
            65 MiB allocation reported by mallinfo(arena+hblkhd)
        243607 MiB available memory on the node where the printing process lives
------------------
     ethr =  6.54E-10,  avg # of iterations =  1.4

     total cpu time spent up to now is       40.7 secs

     total energy              =    -184.83183025 Ry
     estimated scf accuracy    <       0.00000009 Ry

     iteration # 12     ecut=    80.00 Ry     beta= 0.20
     Davidson diagonalization with overlap

---- Real-time Memory Report at c_bands before calling an iterative solver
            86 MiB given to the printing process from OS
            65 MiB allocation reported by mallinfo(arena+hblkhd)
        243607 MiB available memory on the node where the printing process lives
------------------
     ethr =  3.58E-10,  avg # of iterations =  4.8

     total cpu time spent up to now is       42.1 secs

     total energy              =    -184.83183028 Ry
     estimated scf accuracy    <       0.00000002 Ry

     iteration # 13     ecut=    80.00 Ry     beta= 0.20
     Davidson diagonalization with overlap

---- Real-time Memory Report at c_bands before calling an iterative solver
            86 MiB given to the printing process from OS
            65 MiB allocation reported by mallinfo(arena+hblkhd)
        243614 MiB available memory on the node where the printing process lives
------------------
     ethr =  8.98E-11,  avg # of iterations =  1.7

     total cpu time spent up to now is       43.1 secs

     total energy              =    -184.83183028 Ry
     estimated scf accuracy    <       0.00000001 Ry

     iteration # 14     ecut=    80.00 Ry     beta= 0.20
     Davidson diagonalization with overlap

---- Real-time Memory Report at c_bands before calling an iterative solver
            86 MiB given to the printing process from OS
            65 MiB allocation reported by mallinfo(arena+hblkhd)
        243614 MiB available memory on the node where the printing process lives
------------------
     ethr =  4.60E-11,  avg # of iterations =  2.6

     total cpu time spent up to now is       44.2 secs

     total energy              =    -184.83183028 Ry
     estimated scf accuracy    <          3.8E-09 Ry

     iteration # 15     ecut=    80.00 Ry     beta= 0.20
     Davidson diagonalization with overlap

---- Real-time Memory Report at c_bands before calling an iterative solver
            86 MiB given to the printing process from OS
            65 MiB allocation reported by mallinfo(arena+hblkhd)
        243614 MiB available memory on the node where the printing process lives
------------------
     ethr =  1.45E-11,  avg # of iterations =  1.8

     total cpu time spent up to now is       45.1 secs

     total energy              =    -184.83183028 Ry
     estimated scf accuracy    <          3.5E-09 Ry

     iteration # 16     ecut=    80.00 Ry     beta= 0.20
     Davidson diagonalization with overlap

---- Real-time Memory Report at c_bands before calling an iterative solver
            86 MiB given to the printing process from OS
            65 MiB allocation reported by mallinfo(arena+hblkhd)
        243614 MiB available memory on the node where the printing process lives
------------------
     ethr =  1.35E-11,  avg # of iterations =  3.1

     total cpu time spent up to now is       46.3 secs

     total energy              =    -184.83183028 Ry
     estimated scf accuracy    <          6.2E-10 Ry

     iteration # 17     ecut=    80.00 Ry     beta= 0.20
     Davidson diagonalization with overlap

---- Real-time Memory Report at c_bands before calling an iterative solver
            86 MiB given to the printing process from OS
            65 MiB allocation reported by mallinfo(arena+hblkhd)
        243614 MiB available memory on the node where the printing process lives
------------------
     ethr =  2.39E-12,  avg # of iterations =  4.9

     total cpu time spent up to now is       47.7 secs

     total energy              =    -184.83183028 Ry
     estimated scf accuracy    <          1.7E-11 Ry

     iteration # 18     ecut=    80.00 Ry     beta= 0.20
     Davidson diagonalization with overlap

---- Real-time Memory Report at c_bands before calling an iterative solver
            86 MiB given to the printing process from OS
            65 MiB allocation reported by mallinfo(arena+hblkhd)
        243613 MiB available memory on the node where the printing process lives
------------------
     ethr =  1.00E-13,  avg # of iterations =  5.4

     total cpu time spent up to now is       49.1 secs

     total energy              =    -184.83183028 Ry
     estimated scf accuracy    <          4.9E-12 Ry

     iteration # 19     ecut=    80.00 Ry     beta= 0.20
     Davidson diagonalization with overlap

---- Real-time Memory Report at c_bands before calling an iterative solver
            86 MiB given to the printing process from OS
            65 MiB allocation reported by mallinfo(arena+hblkhd)
        243613 MiB available memory on the node where the printing process lives
------------------
     ethr =  1.00E-13,  avg # of iterations =  4.4

     total cpu time spent up to now is       50.5 secs

     total energy              =    -184.83183028 Ry
     estimated scf accuracy    <          9.8E-11 Ry

     iteration # 20     ecut=    80.00 Ry     beta= 0.20
     Davidson diagonalization with overlap

---- Real-time Memory Report at c_bands before calling an iterative solver
            86 MiB given to the printing process from OS
            65 MiB allocation reported by mallinfo(arena+hblkhd)
        243612 MiB available memory on the node where the printing process lives
------------------
     ethr =  1.00E-13,  avg # of iterations =  4.3

     total cpu time spent up to now is       51.9 secs

     total energy              =    -184.83183028 Ry
     estimated scf accuracy    <          2.8E-10 Ry

     iteration # 21     ecut=    80.00 Ry     beta= 0.20
     Davidson diagonalization with overlap

---- Real-time Memory Report at c_bands before calling an iterative solver
            86 MiB given to the printing process from OS
            65 MiB allocation reported by mallinfo(arena+hblkhd)
        243612 MiB available memory on the node where the printing process lives
------------------
     ethr =  1.00E-13,  avg # of iterations =  4.1

     total cpu time spent up to now is       53.3 secs

     total energy              =    -184.83183028 Ry
     estimated scf accuracy    <          8.3E-11 Ry

     iteration # 22     ecut=    80.00 Ry     beta= 0.20
     Davidson diagonalization with overlap

---- Real-time Memory Report at c_bands before calling an iterative solver
            86 MiB given to the printing process from OS
            65 MiB allocation reported by mallinfo(arena+hblkhd)
        243612 MiB available memory on the node where the printing process lives
------------------
     ethr =  1.00E-13,  avg # of iterations =  1.0

     total cpu time spent up to now is       54.2 secs

     total energy              =    -184.83183028 Ry
     estimated scf accuracy    <          8.3E-11 Ry

     iteration # 23     ecut=    80.00 Ry     beta= 0.20
     Davidson diagonalization with overlap

---- Real-time Memory Report at c_bands before calling an iterative solver
            86 MiB given to the printing process from OS
            65 MiB allocation reported by mallinfo(arena+hblkhd)
        243612 MiB available memory on the node where the printing process lives
------------------
     ethr =  1.00E-13,  avg # of iterations =  1.0

     total cpu time spent up to now is       55.2 secs

     total energy              =    -184.83183028 Ry
     estimated scf accuracy    <          8.7E-11 Ry

     iteration # 24     ecut=    80.00 Ry     beta= 0.20
     Davidson diagonalization with overlap

---- Real-time Memory Report at c_bands before calling an iterative solver
            86 MiB given to the printing process from OS
            65 MiB allocation reported by mallinfo(arena+hblkhd)
        243616 MiB available memory on the node where the printing process lives
------------------
     ethr =  1.00E-13,  avg # of iterations =  2.0

     total cpu time spent up to now is       56.3 secs

     total energy              =    -184.83183028 Ry
     estimated scf accuracy    <          3.9E-11 Ry

     iteration # 25     ecut=    80.00 Ry     beta= 0.20
     Davidson diagonalization with overlap

---- Real-time Memory Report at c_bands before calling an iterative solver
            86 MiB given to the printing process from OS
            65 MiB allocation reported by mallinfo(arena+hblkhd)
        243617 MiB available memory on the node where the printing process lives
------------------
     ethr =  1.00E-13,  avg # of iterations =  2.8

     total cpu time spent up to now is       57.4 secs

     total energy              =    -184.83183028 Ry
     estimated scf accuracy    <          1.0E-11 Ry

     iteration # 26     ecut=    80.00 Ry     beta= 0.20
     Davidson diagonalization with overlap

---- Real-time Memory Report at c_bands before calling an iterative solver
            86 MiB given to the printing process from OS
            65 MiB allocation reported by mallinfo(arena+hblkhd)
        243618 MiB available memory on the node where the printing process lives
------------------
     ethr =  1.00E-13,  avg # of iterations =  2.9

     total cpu time spent up to now is       58.6 secs

     total energy              =    -184.83183028 Ry
     estimated scf accuracy    <          7.1E-13 Ry

     iteration # 27     ecut=    80.00 Ry     beta= 0.20
     Davidson diagonalization with overlap

---- Real-time Memory Report at c_bands before calling an iterative solver
            86 MiB given to the printing process from OS
            65 MiB allocation reported by mallinfo(arena+hblkhd)
        243618 MiB available memory on the node where the printing process lives
------------------
     ethr =  1.00E-13,  avg # of iterations =  1.1

     total cpu time spent up to now is       59.5 secs

     total energy              =    -184.83183028 Ry
     estimated scf accuracy    <          6.3E-13 Ry

     iteration # 28     ecut=    80.00 Ry     beta= 0.20
     Davidson diagonalization with overlap

---- Real-time Memory Report at c_bands before calling an iterative solver
            86 MiB given to the printing process from OS
            65 MiB allocation reported by mallinfo(arena+hblkhd)
        243617 MiB available memory on the node where the printing process lives
------------------
     ethr =  1.00E-13,  avg # of iterations =  1.0

     total cpu time spent up to now is       60.5 secs

     total energy              =    -184.83183028 Ry
     estimated scf accuracy    <          2.6E-13 Ry

     iteration # 29     ecut=    80.00 Ry     beta= 0.20
     Davidson diagonalization with overlap

---- Real-time Memory Report at c_bands before calling an iterative solver
            86 MiB given to the printing process from OS
            65 MiB allocation reported by mallinfo(arena+hblkhd)
        243617 MiB available memory on the node where the printing process lives
------------------
     ethr =  1.00E-13,  avg # of iterations =  1.0

     total cpu time spent up to now is       61.4 secs

     total energy              =    -184.83183028 Ry
     estimated scf accuracy    <          1.4E-12 Ry

     iteration # 30     ecut=    80.00 Ry     beta= 0.20
     Davidson diagonalization with overlap

---- Real-time Memory Report at c_bands before calling an iterative solver
            86 MiB given to the printing process from OS
            65 MiB allocation reported by mallinfo(arena+hblkhd)
        243619 MiB available memory on the node where the printing process lives
------------------
     ethr =  1.00E-13,  avg # of iterations =  1.0

     total cpu time spent up to now is       62.4 secs

     total energy              =    -184.83183028 Ry
     estimated scf accuracy    <          1.2E-12 Ry

     iteration # 31     ecut=    80.00 Ry     beta= 0.20
     Davidson diagonalization with overlap

---- Real-time Memory Report at c_bands before calling an iterative solver
            86 MiB given to the printing process from OS
            65 MiB allocation reported by mallinfo(arena+hblkhd)
        243619 MiB available memory on the node where the printing process lives
------------------
     ethr =  1.00E-13,  avg # of iterations =  1.0

     total cpu time spent up to now is       63.3 secs

     total energy              =    -184.83183028 Ry
     estimated scf accuracy    <          8.7E-14 Ry

     iteration # 32     ecut=    80.00 Ry     beta= 0.20
     Davidson diagonalization with overlap

---- Real-time Memory Report at c_bands before calling an iterative solver
            86 MiB given to the printing process from OS
            65 MiB allocation reported by mallinfo(arena+hblkhd)
        243619 MiB available memory on the node where the printing process lives
------------------
     ethr =  1.00E-13,  avg # of iterations =  1.0

     total cpu time spent up to now is       64.3 secs

     total energy              =    -184.83183028 Ry
     estimated scf accuracy    <          1.6E-13 Ry

     iteration # 33     ecut=    80.00 Ry     beta= 0.20
     Davidson diagonalization with overlap

---- Real-time Memory Report at c_bands before calling an iterative solver
            86 MiB given to the printing process from OS
            65 MiB allocation reported by mallinfo(arena+hblkhd)
        243619 MiB available memory on the node where the printing process lives
------------------
     ethr =  1.00E-13,  avg # of iterations =  1.0

     total cpu time spent up to now is       65.2 secs

     total energy              =    -184.83183028 Ry
     estimated scf accuracy    <          5.8E-14 Ry

     iteration # 34     ecut=    80.00 Ry     beta= 0.20
     Davidson diagonalization with overlap

---- Real-time Memory Report at c_bands before calling an iterative solver
            86 MiB given to the printing process from OS
            65 MiB allocation reported by mallinfo(arena+hblkhd)
        243619 MiB available memory on the node where the printing process lives
------------------
     ethr =  1.00E-13,  avg # of iterations =  1.0

     total cpu time spent up to now is       66.1 secs

     total energy              =    -184.83183028 Ry
     estimated scf accuracy    <          6.1E-14 Ry

     iteration # 35     ecut=    80.00 Ry     beta= 0.20
     Davidson diagonalization with overlap

---- Real-time Memory Report at c_bands before calling an iterative solver
            86 MiB given to the printing process from OS
            65 MiB allocation reported by mallinfo(arena+hblkhd)
        243619 MiB available memory on the node where the printing process lives
------------------
     ethr =  1.00E-13,  avg # of iterations =  1.0

     total cpu time spent up to now is       67.1 secs

     total energy              =    -184.83183028 Ry
     estimated scf accuracy    <          1.1E-13 Ry

     iteration # 36     ecut=    80.00 Ry     beta= 0.20
     Davidson diagonalization with overlap

---- Real-time Memory Report at c_bands before calling an iterative solver
            86 MiB given to the printing process from OS
            65 MiB allocation reported by mallinfo(arena+hblkhd)
        243619 MiB available memory on the node where the printing process lives
------------------
     ethr =  1.00E-13,  avg # of iterations =  1.0

     total cpu time spent up to now is       68.0 secs

     total energy              =    -184.83183028 Ry
     estimated scf accuracy    <          1.3E-14 Ry

     iteration # 37     ecut=    80.00 Ry     beta= 0.20
     Davidson diagonalization with overlap

---- Real-time Memory Report at c_bands before calling an iterative solver
            86 MiB given to the printing process from OS
            65 MiB allocation reported by mallinfo(arena+hblkhd)
        243619 MiB available memory on the node where the printing process lives
------------------
     ethr =  1.00E-13,  avg # of iterations =  1.0

     total cpu time spent up to now is       69.0 secs

     End of self-consistent calculation

          k = 0.0000 0.0000 0.0000 ( 14855 PWs)   bands (ev):

   -61.8979 -36.1030 -35.8395 -35.8395 -15.3928 -14.0322  -6.9405  -3.7967
    -3.7967  -3.0156  -2.6413  -2.6413  -1.2422

     occupation numbers 
     1.0000   1.0000   1.0000   1.0000   1.0000   1.0000   1.0000   1.0000
     1.0000   1.0000   1.0000   1.0000   1.0000

          k = 0.0000 0.0550 0.0000 ( 14883 PWs)   bands (ev):

   -61.8970 -36.1010 -35.8494 -35.8418 -15.3568 -14.0176  -6.8994  -3.8786
    -3.7590  -3.2322  -2.7002  -2.4759  -1.2546

     occupation numbers 
     1.0000   1.0000   1.0000   1.0000   1.0000   1.0000   1.0000   1.0000
     1.0000   1.0000   1.0000   1.0000   1.0000

          k = 0.0000 0.1100 0.0000 ( 14863 PWs)   bands (ev):

   -61.8941 -36.0954 -35.8778 -35.8482 -15.2508 -13.9743  -6.7818  -4.1022
    -3.6482  -3.5887  -2.8617  -2.2878  -1.3031

     occupation numbers 
     1.0000   1.0000   1.0000   1.0000   1.0000   1.0000   1.0000   1.0000
     1.0000   1.0000   1.0000   1.0000   1.0000

          k = 0.0000 0.1650 0.0000 ( 14855 PWs)   bands (ev):

   -61.8896 -36.0866 -35.9222 -35.8583 -15.0800 -13.9047  -6.6070  -4.4127
    -3.9706  -3.4722  -3.0901  -2.2206  -1.4165

     occupation numbers 
     1.0000   1.0000   1.0000   1.0000   1.0000   1.0000   1.0000   1.0000
     1.0000   1.0000   1.0000   1.0000   1.0000

          k = 0.0000 0.2199 0.0000 ( 14815 PWs)   bands (ev):

   -61.8838 -36.0753 -35.9783 -35.8711 -14.8535 -13.8125  -6.4184  -4.7376
    -4.3606  -3.3483  -3.2442  -2.2919  -1.6179

     occupation numbers 
     1.0000   1.0000   1.0000   1.0000   1.0000   1.0000   1.0000   1.0000
     1.0000   1.0000   1.0000   1.0000   1.0000

          k = 0.0000 0.2749 0.0000 ( 14799 PWs)   bands (ev):

   -61.8773 -36.0626 -36.0409 -35.8854 -14.5840 -13.7036  -6.3020  -4.9878
    -4.7508  -3.6066  -2.9840  -2.4567  -1.8791

     occupation numbers 
     1.0000   1.0000   1.0000   1.0000   1.0000   1.0000   1.0000   1.0000
     1.0000   1.0000   1.0000   1.0000   1.0000

          k = 0.0000 0.3299 0.0000 ( 14811 PWs)   bands (ev):

   -61.8706 -36.1043 -36.0495 -35.9001 -14.2892 -13.5858  -6.3566  -5.1293
    -5.0932  -3.8442  -2.7169  -2.6492  -2.1078

     occupation numbers 
     1.0000   1.0000   1.0000   1.0000   1.0000   1.0000   1.0000   1.0000
     1.0000   1.0000   1.0000   1.0000   1.0000

          k = 0.0000 0.3849 0.0000 ( 14770 PWs)   bands (ev):

   -61.8644 -36.1629 -36.0373 -35.9137 -13.9917 -13.4689  -6.5567  -5.4774
    -5.1218  -4.0470  -2.8220  -2.4716  -2.2004

     occupation numbers 
     1.0000   1.0000   1.0000   1.0000   1.0000   1.0000   1.0000   1.0000
     1.0000   1.0000   1.0000   1.0000   1.0000

          k = 0.0000 0.4399 0.0000 ( 14722 PWs)   bands (ev):

   -61.8592 -36.2117 -36.0270 -35.9251 -13.7206 -13.3649  -6.7933  -5.7704
    -5.1802  -4.2058  -2.9537  -2.2738  -2.1277

     occupation numbers 
     1.0000   1.0000   1.0000   1.0000   1.0000   1.0000   1.0000   1.0000
     1.0000   1.0000   1.0000   1.0000   1.0000

          k = 0.0000 0.4949 0.0000 ( 14716 PWs)   bands (ev):

   -61.8554 -36.2467 -36.0196 -35.9334 -13.5101 -13.2862  -6.9904  -5.9833
    -5.2658  -4.3146  -3.0395  -2.1393  -1.9692

     occupation numbers 
     1.0000   1.0000   1.0000   1.0000   1.0000   1.0000   1.0000   1.0000
     1.0000   1.0000   1.0000   1.0000   1.0000

          k = 0.0000 0.5499 0.0000 ( 14720 PWs)   bands (ev):

   -61.8534 -36.2649 -36.0157 -35.9377 -13.3938 -13.2436  -7.1017  -6.0956
    -5.3261  -4.3698  -3.0812  -2.0726  -1.8478

     occupation numbers 
     1.0000   1.0000   1.0000   1.0000   1.0000   1.0000   1.0000   1.0000
     1.0000   1.0000   1.0000   1.0000   1.0000

          k = 0.0476 0.0825 0.0000 ( 14875 PWs)   bands (ev):

   -61.8950 -36.0973 -35.8683 -35.8463 -15.2858 -13.9886  -6.8199  -4.0306
    -3.6853  -3.4846  -2.8263  -2.3162  -1.2850

     occupation numbers 
     1.0000   1.0000   1.0000   1.0000   1.0000   1.0000   1.0000   1.0000
     1.0000   1.0000   1.0000   1.0000   1.0000

          k = 0.0476 0.1375 0.0000 ( 14858 PWs)   bands (ev):

   -61.8913 -36.0900 -35.9043 -35.8550 -15.1474 -13.9321  -6.6726  -4.2954
    -3.8163  -3.5443  -3.0572  -2.1849  -1.3658

     occupation numbers 
     1.0000   1.0000   1.0000   1.0000   1.0000   1.0000   1.0000   1.0000
     1.0000   1.0000   1.0000   1.0000   1.0000

          k = 0.0476 0.1925 0.0000 ( 14822 PWs)   bands (ev):

   -61.8862 -36.0800 -35.9539 -35.8671 -14.9486 -13.8511  -6.4868  -4.6100
    -4.1754  -3.3486  -3.3363  -2.1715  -1.5244

     occupation numbers 
     1.0000   1.0000   1.0000   1.0000   1.0000   1.0000   1.0000   1.0000
     1.0000   1.0000   1.0000   1.0000   1.0000

          k = 0.0476 0.2474 0.0000 ( 14793 PWs)   bands (ev):

   -61.8800 -36.0680 -36.0124 -35.8814 -14.7003 -13.7503  -6.3252  -4.8942
    -4.5517  -3.6147  -3.1192  -2.2801  -1.7586

     occupation numbers 
     1.0000   1.0000   1.0000   1.0000   1.0000   1.0000   1.0000   1.0000
     1.0000   1.0000   1.0000   1.0000   1.0000

          k = 0.0476 0.3024 0.0000 ( 14812 PWs)   bands (ev):

   -61.8735 -36.0745 -36.0551 -35.8968 -14.4176 -13.6363  -6.2915  -5.0573
    -4.9366  -3.8595  -2.8895  -2.4621  -1.9973

     occupation numbers 
     1.0000   1.0000   1.0000   1.0000   1.0000   1.0000   1.0000   1.0000
     1.0000   1.0000   1.0000   1.0000   1.0000

          k = 0.0476 0.3574 0.0000 ( 14790 PWs)   bands (ev):

   -61.8670 -36.1347 -36.0424 -35.9118 -14.1203 -13.5180  -6.4315  -5.3101
    -5.0950  -4.0567  -2.7051  -2.6605  -2.1165

     occupation numbers 
     1.0000   1.0000   1.0000   1.0000   1.0000   1.0000   1.0000   1.0000
     1.0000   1.0000   1.0000   1.0000   1.0000

          k = 0.0476 0.4124 0.0000 ( 14759 PWs)   bands (ev):

   -61.8613 -36.1877 -36.0312 -35.9250 -13.8342 -13.4064  -6.6564  -5.6439
    -5.1272  -4.2047  -2.8362  -2.5726  -2.0573

     occupation numbers 
     1.0000   1.0000   1.0000   1.0000   1.0000   1.0000   1.0000   1.0000
     1.0000   1.0000   1.0000   1.0000   1.0000

          k = 0.0476 0.4674 0.0000 ( 14731 PWs)   bands (ev):

   -61.8568 -36.2290 -36.0224 -35.9354 -13.5911 -13.3137  -6.8733  -5.9084
    -5.2060  -4.3070  -2.9688  -2.4446  -1.9094

     occupation numbers 
     1.0000   1.0000   1.0000   1.0000   1.0000   1.0000   1.0000   1.0000
     1.0000   1.0000   1.0000   1.0000   1.0000

          k = 0.0476 0.5224 0.0000 ( 14718 PWs)   bands (ev):

   -61.8539 -36.2553 -36.0167 -35.9420 -13.4256 -13.2520  -7.0265  -6.0785
    -5.2877  -4.3670  -3.0500  -2.3439  -1.7678

     occupation numbers 
     1.0000   1.0000   1.0000   1.0000   1.0000   1.0000   1.0000   1.0000
     1.0000   1.0000   1.0000   1.0000   1.0000

          k = 0.0476 0.5774 0.0000 ( 14714 PWs)   bands (ev):

   -61.8529 -36.2642 -36.0148 -35.9443 -13.3665 -13.2303  -7.0817  -6.1372
    -5.3211  -4.3867  -3.0773  -2.3075  -1.7083

     occupation numbers 
     1.0000   1.0000   1.0000   1.0000   1.0000   1.0000   1.0000   1.0000
     1.0000   1.0000   1.0000   1.0000   1.0000

          k = 0.0952 0.1650 0.0000 ( 14827 PWs)   bands (ev):

   -61.8870 -36.0816 -35.9447 -35.8665 -14.9808 -13.8641  -6.5114  -4.5606
    -4.0838  -3.3889  -3.3874  -2.0922  -1.4924

     occupation numbers 
     1.0000   1.0000   1.0000   1.0000   1.0000   1.0000   1.0000   1.0000
     1.0000   1.0000   1.0000   1.0000   1.0000

          k = 0.0952 0.2199 0.0000 ( 14813 PWs)   bands (ev):

   -61.8815 -36.0708 -35.9953 -35.8816 -14.7600 -13.7741  -6.3416  -4.8295
    -4.3811  -3.7447  -3.2078  -2.0972  -1.6884

     occupation numbers 
     1.0000   1.0000   1.0000   1.0000   1.0000   1.0000   1.0000   1.0000
     1.0000   1.0000   1.0000   1.0000   1.0000

          k = 0.0952 0.2749 0.0000 ( 14793 PWs)   bands (ev):

   -61.8753 -36.0586 -36.0516 -35.8987 -14.4976 -13.6674  -6.2482  -5.0136
    -4.7331  -4.0335  -3.0458  -2.2136  -1.9051

     occupation numbers 
     1.0000   1.0000   1.0000   1.0000   1.0000   1.0000   1.0000   1.0000
     1.0000   1.0000   1.0000   1.0000   1.0000

          k = 0.0952 0.3299 0.0000 ( 14799 PWs)   bands (ev):

   -61.8689 -36.1087 -36.0461 -35.9162 -14.2109 -13.5517  -6.3140  -5.1284
    -5.0585  -4.2200  -2.9607  -2.4038  -2.0308

     occupation numbers 
     1.0000   1.0000   1.0000   1.0000   1.0000   1.0000   1.0000   1.0000
     1.0000   1.0000   1.0000   1.0000   1.0000

          k = 0.0952 0.3849 0.0000 ( 14771 PWs)   bands (ev):

   -61.8630 -36.1615 -36.0345 -35.9325 -13.9223 -13.4366  -6.4978  -5.5134
    -5.0553  -4.3265  -2.9371  -2.6182  -2.0011

     occupation numbers 
     1.0000   1.0000   1.0000   1.0000   1.0000   1.0000   1.0000   1.0000
     1.0000   1.0000   1.0000   1.0000   1.0000

          k = 0.0952 0.4399 0.0000 ( 14747 PWs)   bands (ev):

   -61.8580 -36.2055 -36.0247 -35.9462 -13.6603 -13.3339  -6.7044  -5.8407
    -5.1096  -4.3790  -2.8844  -2.8166  -1.8748

     occupation numbers 
     1.0000   1.0000   1.0000   1.0000   1.0000   1.0000   1.0000   1.0000
     1.0000   1.0000   1.0000   1.0000   1.0000

          k = 0.0952 0.4949 0.0000 ( 14735 PWs)   bands (ev):

   -61.8544 -36.2370 -36.0176 -35.9560 -13.4576 -13.2559  -6.8732  -6.0774
    -5.2053  -4.3979  -2.9689  -2.8052  -1.7218

     occupation numbers 
     1.0000   1.0000   1.0000   1.0000   1.0000   1.0000   1.0000   1.0000
     1.0000   1.0000   1.0000   1.0000   1.0000

          k = 0.0952 0.5499 0.0000 ( 14714 PWs)   bands (ev):

   -61.8525 -36.2534 -36.0139 -35.9612 -13.3460 -13.2136  -6.9676  -6.2015
    -5.2743  -4.4014  -3.0521  -2.7532  -1.6122

     occupation numbers 
     1.0000   1.0000   1.0000   1.0000   1.0000   1.0000   1.0000   1.0000
     1.0000   1.0000   1.0000   1.0000   1.0000

          k = 0.1429 0.2474 0.0000 ( 14801 PWs)   bands (ev):

   -61.8759 -36.0598 -36.0427 -35.9004 -14.5248 -13.6779  -6.2330  -4.9939
    -4.6113  -4.1573  -3.1062  -2.1024  -1.8713

     occupation numbers 
     1.0000   1.0000   1.0000   1.0000   1.0000   1.0000   1.0000   1.0000
     1.0000   1.0000   1.0000   1.0000   1.0000

          k = 0.1429 0.3024 0.0000 ( 14798 PWs)   bands (ev):

   -61.8699 -36.0922 -36.0481 -35.9214 -14.2576 -13.5687  -6.2414  -5.0316
    -4.9652  -4.4002  -3.1157  -2.2158  -1.9870

     occupation numbers 
     1.0000   1.0000   1.0000   1.0000   1.0000   1.0000   1.0000   1.0000
     1.0000   1.0000   1.0000   1.0000   1.0000

          k = 0.1429 0.3574 0.0000 ( 14791 PWs)   bands (ev):

   -61.8640 -36.1397 -36.0366 -35.9424 -13.9779 -13.4548  -6.3665  -5.3899
    -4.9848  -4.4840  -3.2258  -2.4095  -1.9805

     occupation numbers 
     1.0000   1.0000   1.0000   1.0000   1.0000   1.0000   1.0000   1.0000
     1.0000   1.0000   1.0000   1.0000   1.0000

          k = 0.1429 0.4124 0.0000 ( 14771 PWs)   bands (ev):

   -61.8588 -36.1813 -36.0263 -35.9613 -13.7105 -13.3468  -6.5322  -5.7778
    -4.9855  -4.4909  -3.3112  -2.6369  -1.8831

     occupation numbers 
     1.0000   1.0000   1.0000   1.0000   1.0000   1.0000   1.0000   1.0000
     1.0000   1.0000   1.0000   1.0000   1.0000

          k = 0.1429 0.4674 0.0000 ( 14749 PWs)   bands (ev):

   -61.8547 -36.2137 -36.0183 -35.9763 -13.4850 -13.2566  -6.6804  -6.0815
    -5.0772  -4.4571  -3.3135  -2.8516  -1.7337

     occupation numbers 
     1.0000   1.0000   1.0000   1.0000   1.0000   1.0000   1.0000   1.0000
     1.0000   1.0000   1.0000   1.0000   1.0000

          k = 0.1429 0.5224 0.0000 ( 14744 PWs)   bands (ev):

   -61.8521 -36.2343 -36.0131 -35.9858 -13.3327 -13.1963  -6.7804  -6.2745
    -5.1855  -4.4131  -3.2835  -3.0095  -1.5849

     occupation numbers 
     1.0000   1.0000   1.0000   1.0000   1.0000   1.0000   1.0000   1.0000
     1.0000   1.0000   1.0000   1.0000   1.0000

          k = 0.1429 0.5774 0.0000 ( 14722 PWs)   bands (ev):

   -61.8512 -36.2413 -36.0114 -35.9891 -13.2786 -13.1751  -6.8156  -6.3407
    -5.2310  -4.3926  -3.2693  -3.0687  -1.5197

     occupation numbers 
     1.0000   1.0000   1.0000   1.0000   1.0000   1.0000   1.0000   1.0000
     1.0000   1.0000   1.0000   1.0000   1.0000

          k = 0.1905 0.3299 0.0000 ( 14781 PWs)   bands (ev):

   -61.8644 -36.1309 -36.0373 -35.9472 -13.9969 -13.4609  -6.3147  -5.3309
    -4.9529  -4.5605  -3.3391  -2.3236  -1.9764

     occupation numbers 
     1.0000   1.0000   1.0000   1.0000   1.0000   1.0000   1.0000   1.0000
     1.0000   1.0000   1.0000   1.0000   1.0000

          k = 0.1905 0.3849 0.0000 ( 14753 PWs)   bands (ev):

   -61.8592 -36.1650 -36.0272 -35.9730 -13.7369 -13.3530  -6.4203  -5.7352
    -4.8752  -4.5730  -3.6012  -2.5156  -1.8985

     occupation numbers 
     1.0000   1.0000   1.0000   1.0000   1.0000   1.0000   1.0000   1.0000
     1.0000   1.0000   1.0000   1.0000   1.0000

          k = 0.1905 0.4399 0.0000 ( 14749 PWs)   bands (ev):

   -61.8549 -36.1924 -36.0187 -35.9959 -13.5035 -13.2560  -6.5123  -6.0847
    -4.9099  -4.5135  -3.7688  -2.7455  -1.7622

     occupation numbers 
     1.0000   1.0000   1.0000   1.0000   1.0000   1.0000   1.0000   1.0000
     1.0000   1.0000   1.0000   1.0000   1.0000

          k = 0.1905 0.4949 0.0000 ( 14736 PWs)   bands (ev):

   -61.8518 -36.2114 -36.0129 -36.0126 -13.3253 -13.1819  -6.5700  -6.3370
    -5.0471  -4.4245  -3.8170  -2.9593  -1.5903

     occupation numbers 
     1.0000   1.0000   1.0000   1.0000   1.0000   1.0000   1.0000   1.0000
     1.0000   1.0000   1.0000   1.0000   1.0000

          k = 0.1905 0.5499 0.0000 ( 14754 PWs)   bands (ev):

   -61.8502 -36.2212 -36.0219 -36.0094 -13.2283 -13.1415  -6.5941  -6.4690
    -5.1605  -4.3547  -3.8191  -3.0951  -1.4594

     occupation numbers 
     1.0000   1.0000   1.0000   1.0000   1.0000   1.0000   1.0000   1.0000
     1.0000   1.0000   1.0000   1.0000   1.0000

          k = 0.2381 0.4124 0.0000 ( 14762 PWs)   bands (ev):

   -61.8550 -36.1831 -36.0189 -36.0045 -13.5100 -13.2556  -6.4443  -6.0856
    -4.7999  -4.5363  -3.9876  -2.7025  -1.7756

     occupation numbers 
     1.0000   1.0000   1.0000   1.0000   1.0000   1.0000   1.0000   1.0000
     1.0000   1.0000   1.0000   1.0000   1.0000

          k = 0.2381 0.4674 0.0000 ( 14739 PWs)   bands (ev):

   -61.8517 -36.1938 -36.0327 -36.0123 -13.3223 -13.1736  -6.4226  -6.3728
    -4.8625  -4.4326  -4.2447  -2.9240  -1.6005

     occupation numbers 
     1.0000   1.0000   1.0000   1.0000   1.0000   1.0000   1.0000   1.0000
     1.0000   1.0000   1.0000   1.0000   1.0000

          k = 0.2381 0.5224 0.0000 ( 14764 PWs)   bands (ev):

   -61.8495 -36.1986 -36.0527 -36.0081 -13.1975 -13.1185  -6.5587  -6.3686
    -5.0523  -4.3171  -4.3159  -3.1177  -1.4199

     occupation numbers 
     1.0000   1.0000   1.0000   1.0000   1.0000   1.0000   1.0000   1.0000
     1.0000   1.0000   1.0000   1.0000   1.0000

          k = 0.2381 0.5774 0.0000 ( 14776 PWs)   bands (ev):

   -61.8488 -36.1998 -36.0601 -36.0067 -13.1537 -13.0990  -6.6229  -6.3362
    -5.1513  -4.3255  -4.2604  -3.1999  -1.3379

     occupation numbers 
     1.0000   1.0000   1.0000   1.0000   1.0000   1.0000   1.0000   1.0000
     1.0000   1.0000   1.0000   1.0000   1.0000

          k = 0.2857 0.4949 0.0000 ( 14730 PWs)   bands (ev):

   -61.8493 -36.1871 -36.0671 -36.0077 -13.1872 -13.1103  -6.5908  -6.2646
    -4.9414  -4.5881  -4.3000  -3.1263  -1.4053

     occupation numbers 
     1.0000   1.0000   1.0000   1.0000   1.0000   1.0000   1.0000   1.0000
     1.0000   1.0000   1.0000   1.0000   1.0000

          k = 0.2857 0.5499 0.0000 ( 14738 PWs)   bands (ev):

   -61.8481 -36.1778 -36.0909 -36.0053 -13.1150 -13.0757  -6.7073  -6.0943
    -5.1849  -4.6599  -4.1857  -3.2776  -1.2537

     occupation numbers 
     1.0000   1.0000   1.0000   1.0000   1.0000   1.0000   1.0000   1.0000
     1.0000   1.0000   1.0000   1.0000   1.0000

          k = 0.3333 0.5774 0.0000 ( 14760 PWs)   bands (ev):

   -61.8476 -36.1621 -36.1125 -36.0043 -13.0865 -13.0605  -6.7593  -5.8950
    -5.3705  -4.7438  -4.1203  -3.3531  -1.1782

     occupation numbers 
     1.0000   1.0000   1.0000   1.0000   1.0000   1.0000   1.0000   1.0000
     1.0000   1.0000   1.0000   1.0000   1.0000

     highest occupied level (ev):    -1.1782

!    total energy              =    -184.83183028 Ry
     estimated scf accuracy    <          9.5E-16 Ry

     convergence has been achieved in  37 iterations

     Forces acting on atoms (cartesian axes, Ry/au):

     atom    1 type  1   force =     0.00000000   -0.00000000    0.00000000
     atom    2 type  2   force =     0.00000000   -0.00000000   -0.00065950
     atom    3 type  2   force =     0.00000000   -0.00000000    0.00065950
     The non-local contrib.  to forces
     atom    1 type  1   force =     0.00000000    0.00000000    0.00000000
     atom    2 type  2   force =     0.00000000    0.00000000   -0.25628530
     atom    3 type  2   force =    -0.00000000   -0.00000000    0.25628530
     The ionic contribution  to forces
     atom    1 type  1   force =     0.00000001    0.00000097    0.00000000
     atom    2 type  2   force =    -0.00000000   -0.00000048   37.43151912
     atom    3 type  2   force =    -0.00000000   -0.00000048  -37.43151912
     The local contribution  to forces
     atom    1 type  1   force =    -0.00000000    0.00002380    0.00000000
     atom    2 type  2   force =    -0.00000001    0.00000001  -37.18010518
     atom    3 type  2   force =    -0.00000001    0.00000001   37.18010518
     The core correction contribution to forces
     atom    1 type  1   force =    -0.00000000   -0.00000040   -0.00000000
     atom    2 type  2   force =     0.00000000   -0.00000000    0.00421186
     atom    3 type  2   force =     0.00000000   -0.00000000   -0.00421186
     The Hubbard contrib.    to forces
     atom    1 type  1   force =     0.00000000    0.00000000    0.00000000
     atom    2 type  2   force =     0.00000000    0.00000000    0.00000000
     atom    3 type  2   force =     0.00000000    0.00000000    0.00000000
     The SCF correction term to forces
     atom    1 type  1   force =    -0.00000000   -0.00000000   -0.00000000
     atom    2 type  2   force =    -0.00000000   -0.00000000   -0.00000000
     atom    3 type  2   force =    -0.00000000   -0.00000000    0.00000000

     Total force =     0.000933     Total SCF correction =     0.000000

     Damped Dynamics Calculation

     Entering Dynamics:    iteration =     1

ATOMIC_POSITIONS (crystal)
Mo               0.3333333000        0.6666666000        0.5000000000    0   0   0
S                0.6666666670        0.3333333330        0.5736257836    0   0   1
S                0.6666666670        0.3333333330        0.4263742164    0   0   1



     Writing config-only to output data dir ./tmp/MoS2.save/ :
     XML data file
     NEW-OLD atomic charge density approx. for the potential

     total cpu time spent up to now is       69.3 secs

     per-process dynamical memory:    71.8 Mb

     Self-consistent Calculation

     iteration #  1     ecut=    80.00 Ry     beta= 0.20
     Davidson diagonalization with overlap

---- Real-time Memory Report at c_bands before calling an iterative solver
            91 MiB given to the printing process from OS
            70 MiB allocation reported by mallinfo(arena+hblkhd)
        243607 MiB available memory on the node where the printing process lives
------------------
     ethr =  1.00E-06,  avg # of iterations =  1.0

     Threshold (ethr) on eigenvalues was too large:
     Diagonalizing with lowered threshold

     Davidson diagonalization with overlap

---- Real-time Memory Report at c_bands before calling an iterative solver
            91 MiB given to the printing process from OS
            70 MiB allocation reported by mallinfo(arena+hblkhd)
        243605 MiB available memory on the node where the printing process lives
------------------
     ethr =  4.08E-10,  avg # of iterations =  4.9

     total cpu time spent up to now is       71.7 secs

     total energy              =    -184.83183063 Ry
     estimated scf accuracy    <          3.4E-09 Ry

     iteration #  2     ecut=    80.00 Ry     beta= 0.20
     Davidson diagonalization with overlap

---- Real-time Memory Report at c_bands before calling an iterative solver
            91 MiB given to the printing process from OS
            70 MiB allocation reported by mallinfo(arena+hblkhd)
        243605 MiB available memory on the node where the printing process lives
------------------
     ethr =  1.31E-11,  avg # of iterations =  5.8

     total cpu time spent up to now is       73.2 secs

     total energy              =    -184.83183063 Ry
     estimated scf accuracy    <          5.0E-09 Ry

     iteration #  3     ecut=    80.00 Ry     beta= 0.20
     Davidson diagonalization with overlap

---- Real-time Memory Report at c_bands before calling an iterative solver
            91 MiB given to the printing process from OS
            70 MiB allocation reported by mallinfo(arena+hblkhd)
        243598 MiB available memory on the node where the printing process lives
------------------
     ethr =  1.31E-11,  avg # of iterations =  1.0

     total cpu time spent up to now is       74.2 secs

     total energy              =    -184.83183063 Ry
     estimated scf accuracy    <          4.5E-09 Ry

     iteration #  4     ecut=    80.00 Ry     beta= 0.20
     Davidson diagonalization with overlap

---- Real-time Memory Report at c_bands before calling an iterative solver
            91 MiB given to the printing process from OS
            70 MiB allocation reported by mallinfo(arena+hblkhd)
        243598 MiB available memory on the node where the printing process lives
------------------
     ethr =  1.31E-11,  avg # of iterations =  5.6

     total cpu time spent up to now is       76.0 secs

     total energy              =    -184.83183063 Ry
     estimated scf accuracy    <       0.00000002 Ry

     iteration #  5     ecut=    80.00 Ry     beta= 0.20
     Davidson diagonalization with overlap

---- Real-time Memory Report at c_bands before calling an iterative solver
            91 MiB given to the printing process from OS
            70 MiB allocation reported by mallinfo(arena+hblkhd)
        243598 MiB available memory on the node where the printing process lives
------------------
     ethr =  1.31E-11,  avg # of iterations =  1.8

     total cpu time spent up to now is       77.0 secs

     total energy              =    -184.83183063 Ry
     estimated scf accuracy    <       0.00000001 Ry

     iteration #  6     ecut=    80.00 Ry     beta= 0.20
     Davidson diagonalization with overlap

---- Real-time Memory Report at c_bands before calling an iterative solver
            91 MiB given to the printing process from OS
            70 MiB allocation reported by mallinfo(arena+hblkhd)
        243598 MiB available memory on the node where the printing process lives
------------------
     ethr =  1.31E-11,  avg # of iterations =  5.9

     total cpu time spent up to now is       78.6 secs

     total energy              =    -184.83183063 Ry
     estimated scf accuracy    <          1.9E-09 Ry

     iteration #  7     ecut=    80.00 Ry     beta= 0.20
     Davidson diagonalization with overlap

---- Real-time Memory Report at c_bands before calling an iterative solver
            91 MiB given to the printing process from OS
            70 MiB allocation reported by mallinfo(arena+hblkhd)
        243597 MiB available memory on the node where the printing process lives
------------------
     ethr =  7.16E-12,  avg # of iterations =  2.4

     total cpu time spent up to now is       79.7 secs

     total energy              =    -184.83183063 Ry
     estimated scf accuracy    <          3.3E-10 Ry

     iteration #  8     ecut=    80.00 Ry     beta= 0.20
     Davidson diagonalization with overlap

---- Real-time Memory Report at c_bands before calling an iterative solver
            91 MiB given to the printing process from OS
            70 MiB allocation reported by mallinfo(arena+hblkhd)
        243597 MiB available memory on the node where the printing process lives
------------------
     ethr =  1.25E-12,  avg # of iterations =  5.9

     total cpu time spent up to now is       81.3 secs

     total energy              =    -184.83183063 Ry
     estimated scf accuracy    <          8.1E-10 Ry

     iteration #  9     ecut=    80.00 Ry     beta= 0.20
     Davidson diagonalization with overlap

---- Real-time Memory Report at c_bands before calling an iterative solver
            91 MiB given to the printing process from OS
            70 MiB allocation reported by mallinfo(arena+hblkhd)
        243596 MiB available memory on the node where the printing process lives
------------------
     ethr =  1.25E-12,  avg # of iterations =  1.9

     total cpu time spent up to now is       82.4 secs

     total energy              =    -184.83183063 Ry
     estimated scf accuracy    <          4.0E-10 Ry

     iteration # 10     ecut=    80.00 Ry     beta= 0.20
     Davidson diagonalization with overlap

---- Real-time Memory Report at c_bands before calling an iterative solver
            91 MiB given to the printing process from OS
            70 MiB allocation reported by mallinfo(arena+hblkhd)
        243600 MiB available memory on the node where the printing process lives
------------------
     ethr =  1.25E-12,  avg # of iterations =  4.4

     total cpu time spent up to now is       83.7 secs

     total energy              =    -184.83183063 Ry
     estimated scf accuracy    <          7.0E-11 Ry

     iteration # 11     ecut=    80.00 Ry     beta= 0.20
     Davidson diagonalization with overlap

---- Real-time Memory Report at c_bands before calling an iterative solver
            91 MiB given to the printing process from OS
            70 MiB allocation reported by mallinfo(arena+hblkhd)
        243598 MiB available memory on the node where the printing process lives
------------------
     ethr =  2.71E-13,  avg # of iterations =  3.7

     total cpu time spent up to now is       85.0 secs

     total energy              =    -184.83183063 Ry
     estimated scf accuracy    <          1.9E-10 Ry

     iteration # 12     ecut=    80.00 Ry     beta= 0.20
     Davidson diagonalization with overlap

---- Real-time Memory Report at c_bands before calling an iterative solver
            91 MiB given to the printing process from OS
            70 MiB allocation reported by mallinfo(arena+hblkhd)
        243598 MiB available memory on the node where the printing process lives
------------------
     ethr =  2.71E-13,  avg # of iterations =  2.9

     total cpu time spent up to now is       86.2 secs

     total energy              =    -184.83183063 Ry
     estimated scf accuracy    <          3.8E-11 Ry

     iteration # 13     ecut=    80.00 Ry     beta= 0.20
     Davidson diagonalization with overlap

---- Real-time Memory Report at c_bands before calling an iterative solver
            91 MiB given to the printing process from OS
            70 MiB allocation reported by mallinfo(arena+hblkhd)
        243598 MiB available memory on the node where the printing process lives
------------------
     ethr =  1.47E-13,  avg # of iterations =  1.1

     total cpu time spent up to now is       87.1 secs

     total energy              =    -184.83183063 Ry
     estimated scf accuracy    <          3.0E-11 Ry

     iteration # 14     ecut=    80.00 Ry     beta= 0.20
     Davidson diagonalization with overlap

---- Real-time Memory Report at c_bands before calling an iterative solver
            91 MiB given to the printing process from OS
            70 MiB allocation reported by mallinfo(arena+hblkhd)
        243598 MiB available memory on the node where the printing process lives
------------------
     ethr =  1.14E-13,  avg # of iterations =  3.7

     total cpu time spent up to now is       88.4 secs

     total energy              =    -184.83183063 Ry
     estimated scf accuracy    <          2.1E-12 Ry

     iteration # 15     ecut=    80.00 Ry     beta= 0.20
     Davidson diagonalization with overlap

---- Real-time Memory Report at c_bands before calling an iterative solver
            91 MiB given to the printing process from OS
            70 MiB allocation reported by mallinfo(arena+hblkhd)
        243598 MiB available memory on the node where the printing process lives
------------------
     ethr =  1.00E-13,  avg # of iterations =  1.0

     total cpu time spent up to now is       89.3 secs

     total energy              =    -184.83183063 Ry
     estimated scf accuracy    <          1.4E-12 Ry

     iteration # 16     ecut=    80.00 Ry     beta= 0.20
     Davidson diagonalization with overlap

---- Real-time Memory Report at c_bands before calling an iterative solver
            91 MiB given to the printing process from OS
            70 MiB allocation reported by mallinfo(arena+hblkhd)
        243578 MiB available memory on the node where the printing process lives
------------------
     ethr =  1.00E-13,  avg # of iterations =  1.0

     total cpu time spent up to now is       90.3 secs

     total energy              =    -184.83183063 Ry
     estimated scf accuracy    <          7.9E-13 Ry

     iteration # 17     ecut=    80.00 Ry     beta= 0.20
     Davidson diagonalization with overlap

---- Real-time Memory Report at c_bands before calling an iterative solver
            91 MiB given to the printing process from OS
            70 MiB allocation reported by mallinfo(arena+hblkhd)
        243588 MiB available memory on the node where the printing process lives
------------------
     ethr =  1.00E-13,  avg # of iterations =  1.0

     total cpu time spent up to now is       91.2 secs

     total energy              =    -184.83183063 Ry
     estimated scf accuracy    <          4.5E-13 Ry

     iteration # 18     ecut=    80.00 Ry     beta= 0.20
     Davidson diagonalization with overlap

---- Real-time Memory Report at c_bands before calling an iterative solver
            91 MiB given to the printing process from OS
            70 MiB allocation reported by mallinfo(arena+hblkhd)
        243588 MiB available memory on the node where the printing process lives
------------------
     ethr =  1.00E-13,  avg # of iterations =  1.0

     total cpu time spent up to now is       92.2 secs

     total energy              =    -184.83183063 Ry
     estimated scf accuracy    <          5.5E-15 Ry

     iteration # 19     ecut=    80.00 Ry     beta= 0.20
     Davidson diagonalization with overlap

---- Real-time Memory Report at c_bands before calling an iterative solver
            91 MiB given to the printing process from OS
            70 MiB allocation reported by mallinfo(arena+hblkhd)
        243593 MiB available memory on the node where the printing process lives
------------------
     ethr =  1.00E-13,  avg # of iterations =  1.0

     total cpu time spent up to now is       93.1 secs

     total energy              =    -184.83183063 Ry
     estimated scf accuracy    <          3.4E-15 Ry

     iteration # 20     ecut=    80.00 Ry     beta= 0.20
     Davidson diagonalization with overlap

---- Real-time Memory Report at c_bands before calling an iterative solver
            91 MiB given to the printing process from OS
            70 MiB allocation reported by mallinfo(arena+hblkhd)
        243593 MiB available memory on the node where the printing process lives
------------------
     ethr =  1.00E-13,  avg # of iterations =  1.0

     total cpu time spent up to now is       94.1 secs

     total energy              =    -184.83183063 Ry
     estimated scf accuracy    <          3.5E-14 Ry

     iteration # 21     ecut=    80.00 Ry     beta= 0.20
     Davidson diagonalization with overlap

---- Real-time Memory Report at c_bands before calling an iterative solver
            91 MiB given to the printing process from OS
            70 MiB allocation reported by mallinfo(arena+hblkhd)
        243593 MiB available memory on the node where the printing process lives
------------------
     ethr =  1.00E-13,  avg # of iterations =  1.0

     total cpu time spent up to now is       95.0 secs

     total energy              =    -184.83183063 Ry
     estimated scf accuracy    <          6.8E-14 Ry

     iteration # 22     ecut=    80.00 Ry     beta= 0.20
     Davidson diagonalization with overlap

---- Real-time Memory Report at c_bands before calling an iterative solver
            91 MiB given to the printing process from OS
            70 MiB allocation reported by mallinfo(arena+hblkhd)
        243593 MiB available memory on the node where the printing process lives
------------------
     ethr =  1.00E-13,  avg # of iterations =  1.0

     total cpu time spent up to now is       96.0 secs

     total energy              =    -184.83183063 Ry
     estimated scf accuracy    <          2.6E-13 Ry

     iteration # 23     ecut=    80.00 Ry     beta= 0.20
     Davidson diagonalization with overlap

---- Real-time Memory Report at c_bands before calling an iterative solver
            91 MiB given to the printing process from OS
            70 MiB allocation reported by mallinfo(arena+hblkhd)
        243593 MiB available memory on the node where the printing process lives
------------------
     ethr =  1.00E-13,  avg # of iterations =  1.0

     total cpu time spent up to now is       96.9 secs

     total energy              =    -184.83183063 Ry
     estimated scf accuracy    <          2.6E-13 Ry

     iteration # 24     ecut=    80.00 Ry     beta= 0.20
     Davidson diagonalization with overlap

---- Real-time Memory Report at c_bands before calling an iterative solver
            91 MiB given to the printing process from OS
            70 MiB allocation reported by mallinfo(arena+hblkhd)
        243593 MiB available memory on the node where the printing process lives
------------------
     ethr =  1.00E-13,  avg # of iterations =  1.0

     total cpu time spent up to now is       97.9 secs

     total energy              =    -184.83183063 Ry
     estimated scf accuracy    <          7.0E-13 Ry

     iteration # 25     ecut=    80.00 Ry     beta= 0.20
     Davidson diagonalization with overlap

---- Real-time Memory Report at c_bands before calling an iterative solver
            91 MiB given to the printing process from OS
            70 MiB allocation reported by mallinfo(arena+hblkhd)
        243593 MiB available memory on the node where the printing process lives
------------------
     ethr =  1.00E-13,  avg # of iterations =  1.0

     total cpu time spent up to now is       98.9 secs

     total energy              =    -184.83183063 Ry
     estimated scf accuracy    <          7.0E-13 Ry

     iteration # 26     ecut=    80.00 Ry     beta= 0.20
     Davidson diagonalization with overlap

---- Real-time Memory Report at c_bands before calling an iterative solver
            91 MiB given to the printing process from OS
            70 MiB allocation reported by mallinfo(arena+hblkhd)
        243592 MiB available memory on the node where the printing process lives
------------------
     ethr =  1.00E-13,  avg # of iterations =  1.0

     total cpu time spent up to now is       99.8 secs

     total energy              =    -184.83183063 Ry
     estimated scf accuracy    <          8.4E-13 Ry

     iteration # 27     ecut=    80.00 Ry     beta= 0.20
     Davidson diagonalization with overlap

---- Real-time Memory Report at c_bands before calling an iterative solver
            91 MiB given to the printing process from OS
            70 MiB allocation reported by mallinfo(arena+hblkhd)
        243592 MiB available memory on the node where the printing process lives
------------------
     ethr =  1.00E-13,  avg # of iterations =  1.0

     total cpu time spent up to now is      100.8 secs

     total energy              =    -184.83183063 Ry
     estimated scf accuracy    <          1.4E-12 Ry

     iteration # 28     ecut=    80.00 Ry     beta= 0.20
     Davidson diagonalization with overlap

---- Real-time Memory Report at c_bands before calling an iterative solver
            91 MiB given to the printing process from OS
            70 MiB allocation reported by mallinfo(arena+hblkhd)
        243592 MiB available memory on the node where the printing process lives
------------------
     ethr =  1.00E-13,  avg # of iterations =  1.0

     total cpu time spent up to now is      101.7 secs

     total energy              =    -184.83183063 Ry
     estimated scf accuracy    <          1.2E-12 Ry

     iteration # 29     ecut=    80.00 Ry     beta= 0.20
     Davidson diagonalization with overlap

---- Real-time Memory Report at c_bands before calling an iterative solver
            91 MiB given to the printing process from OS
            70 MiB allocation reported by mallinfo(arena+hblkhd)
        243592 MiB available memory on the node where the printing process lives
------------------
     ethr =  1.00E-13,  avg # of iterations =  1.0

     total cpu time spent up to now is      102.7 secs

     total energy              =    -184.83183063 Ry
     estimated scf accuracy    <          5.7E-13 Ry

     iteration # 30     ecut=    80.00 Ry     beta= 0.20
     Davidson diagonalization with overlap

---- Real-time Memory Report at c_bands before calling an iterative solver
            91 MiB given to the printing process from OS
            70 MiB allocation reported by mallinfo(arena+hblkhd)
        243592 MiB available memory on the node where the printing process lives
------------------
     ethr =  1.00E-13,  avg # of iterations =  1.0

     total cpu time spent up to now is      103.6 secs

     total energy              =    -184.83183063 Ry
     estimated scf accuracy    <          3.3E-13 Ry

     iteration # 31     ecut=    80.00 Ry     beta= 0.20
     Davidson diagonalization with overlap

---- Real-time Memory Report at c_bands before calling an iterative solver
            91 MiB given to the printing process from OS
            70 MiB allocation reported by mallinfo(arena+hblkhd)
        243593 MiB available memory on the node where the printing process lives
------------------
     ethr =  1.00E-13,  avg # of iterations =  1.0

     total cpu time spent up to now is      104.6 secs

     total energy              =    -184.83183063 Ry
     estimated scf accuracy    <          1.8E-13 Ry

     iteration # 32     ecut=    80.00 Ry     beta= 0.20
     Davidson diagonalization with overlap

---- Real-time Memory Report at c_bands before calling an iterative solver
            91 MiB given to the printing process from OS
            70 MiB allocation reported by mallinfo(arena+hblkhd)
        243593 MiB available memory on the node where the printing process lives
------------------
     ethr =  1.00E-13,  avg # of iterations =  1.0

     total cpu time spent up to now is      105.5 secs

     total energy              =    -184.83183063 Ry
     estimated scf accuracy    <          1.9E-13 Ry

     iteration # 33     ecut=    80.00 Ry     beta= 0.20
     Davidson diagonalization with overlap

---- Real-time Memory Report at c_bands before calling an iterative solver
            91 MiB given to the printing process from OS
            70 MiB allocation reported by mallinfo(arena+hblkhd)
        243593 MiB available memory on the node where the printing process lives
------------------
     ethr =  1.00E-13,  avg # of iterations =  1.0

     total cpu time spent up to now is      106.5 secs

     total energy              =    -184.83183063 Ry
     estimated scf accuracy    <          2.4E-14 Ry

     iteration # 34     ecut=    80.00 Ry     beta= 0.20
     Davidson diagonalization with overlap

---- Real-time Memory Report at c_bands before calling an iterative solver
            91 MiB given to the printing process from OS
            70 MiB allocation reported by mallinfo(arena+hblkhd)
        243593 MiB available memory on the node where the printing process lives
------------------
     ethr =  1.00E-13,  avg # of iterations =  1.0

     total cpu time spent up to now is      107.4 secs

     total energy              =    -184.83183063 Ry
     estimated scf accuracy    <          7.3E-15 Ry

     iteration # 35     ecut=    80.00 Ry     beta= 0.20
     Davidson diagonalization with overlap

---- Real-time Memory Report at c_bands before calling an iterative solver
            91 MiB given to the printing process from OS
            70 MiB allocation reported by mallinfo(arena+hblkhd)
        243591 MiB available memory on the node where the printing process lives
------------------
     ethr =  1.00E-13,  avg # of iterations =  1.0

     total cpu time spent up to now is      108.4 secs

     total energy              =    -184.83183063 Ry
     estimated scf accuracy    <          2.3E-14 Ry

     iteration # 36     ecut=    80.00 Ry     beta= 0.20
     Davidson diagonalization with overlap

---- Real-time Memory Report at c_bands before calling an iterative solver
            91 MiB given to the printing process from OS
            70 MiB allocation reported by mallinfo(arena+hblkhd)
        243591 MiB available memory on the node where the printing process lives
------------------
     ethr =  1.00E-13,  avg # of iterations =  1.0

     total cpu time spent up to now is      109.3 secs

     total energy              =    -184.83183063 Ry
     estimated scf accuracy    <          2.9E-14 Ry

     iteration # 37     ecut=    80.00 Ry     beta= 0.20
     Davidson diagonalization with overlap

---- Real-time Memory Report at c_bands before calling an iterative solver
            91 MiB given to the printing process from OS
            70 MiB allocation reported by mallinfo(arena+hblkhd)
        243591 MiB available memory on the node where the printing process lives
------------------
     ethr =  1.00E-13,  avg # of iterations =  1.0

     total cpu time spent up to now is      110.3 secs

     total energy              =    -184.83183063 Ry
     estimated scf accuracy    <          7.3E-15 Ry

     iteration # 38     ecut=    80.00 Ry     beta= 0.20
     Davidson diagonalization with overlap

---- Real-time Memory Report at c_bands before calling an iterative solver
            91 MiB given to the printing process from OS
            70 MiB allocation reported by mallinfo(arena+hblkhd)
        243592 MiB available memory on the node where the printing process lives
------------------
     ethr =  1.00E-13,  avg # of iterations =  1.0

     total cpu time spent up to now is      111.2 secs

     total energy              =    -184.83183063 Ry
     estimated scf accuracy    <          5.3E-15 Ry

     iteration # 39     ecut=    80.00 Ry     beta= 0.20
     Davidson diagonalization with overlap

---- Real-time Memory Report at c_bands before calling an iterative solver
            91 MiB given to the printing process from OS
            70 MiB allocation reported by mallinfo(arena+hblkhd)
        243592 MiB available memory on the node where the printing process lives
------------------
     ethr =  1.00E-13,  avg # of iterations =  1.0

     total cpu time spent up to now is      112.2 secs

     total energy              =    -184.83183063 Ry
     estimated scf accuracy    <          3.8E-15 Ry

     iteration # 40     ecut=    80.00 Ry     beta= 0.20
     Davidson diagonalization with overlap

---- Real-time Memory Report at c_bands before calling an iterative solver
            91 MiB given to the printing process from OS
            70 MiB allocation reported by mallinfo(arena+hblkhd)
        243592 MiB available memory on the node where the printing process lives
------------------
     ethr =  1.00E-13,  avg # of iterations =  1.0

     total cpu time spent up to now is      113.1 secs

     total energy              =    -184.83183063 Ry
     estimated scf accuracy    <          1.8E-14 Ry

     iteration # 41     ecut=    80.00 Ry     beta= 0.20
     Davidson diagonalization with overlap

---- Real-time Memory Report at c_bands before calling an iterative solver
            91 MiB given to the printing process from OS
            70 MiB allocation reported by mallinfo(arena+hblkhd)
        243594 MiB available memory on the node where the printing process lives
------------------
     ethr =  1.00E-13,  avg # of iterations =  1.0

     total cpu time spent up to now is      114.1 secs

     total energy              =    -184.83183063 Ry
     estimated scf accuracy    <          1.3E-14 Ry

     iteration # 42     ecut=    80.00 Ry     beta= 0.20
     Davidson diagonalization with overlap

---- Real-time Memory Report at c_bands before calling an iterative solver
            91 MiB given to the printing process from OS
            70 MiB allocation reported by mallinfo(arena+hblkhd)
        243594 MiB available memory on the node where the printing process lives
------------------
     ethr =  1.00E-13,  avg # of iterations =  1.0

     total cpu time spent up to now is      115.0 secs

     total energy              =    -184.83183063 Ry
     estimated scf accuracy    <          2.4E-14 Ry

     iteration # 43     ecut=    80.00 Ry     beta= 0.20
     Davidson diagonalization with overlap

---- Real-time Memory Report at c_bands before calling an iterative solver
            91 MiB given to the printing process from OS
            70 MiB allocation reported by mallinfo(arena+hblkhd)
        243594 MiB available memory on the node where the printing process lives
------------------
     ethr =  1.00E-13,  avg # of iterations =  1.0

     total cpu time spent up to now is      116.0 secs

     total energy              =    -184.83183063 Ry
     estimated scf accuracy    <          2.4E-14 Ry

     iteration # 44     ecut=    80.00 Ry     beta= 0.20
     Davidson diagonalization with overlap

---- Real-time Memory Report at c_bands before calling an iterative solver
            91 MiB given to the printing process from OS
            70 MiB allocation reported by mallinfo(arena+hblkhd)
        243594 MiB available memory on the node where the printing process lives
------------------
     ethr =  1.00E-13,  avg # of iterations =  1.0

     total cpu time spent up to now is      116.9 secs

     total energy              =    -184.83183063 Ry
     estimated scf accuracy    <          8.5E-15 Ry

     iteration # 45     ecut=    80.00 Ry     beta= 0.20
     Davidson diagonalization with overlap

---- Real-time Memory Report at c_bands before calling an iterative solver
            91 MiB given to the printing process from OS
            70 MiB allocation reported by mallinfo(arena+hblkhd)
        243594 MiB available memory on the node where the printing process lives
------------------
     ethr =  1.00E-13,  avg # of iterations =  1.0

     total cpu time spent up to now is      117.9 secs

     total energy              =    -184.83183063 Ry
     estimated scf accuracy    <          9.6E-15 Ry

     iteration # 46     ecut=    80.00 Ry     beta= 0.20
     Davidson diagonalization with overlap

---- Real-time Memory Report at c_bands before calling an iterative solver
            91 MiB given to the printing process from OS
            70 MiB allocation reported by mallinfo(arena+hblkhd)
        243594 MiB available memory on the node where the printing process lives
------------------
     ethr =  1.00E-13,  avg # of iterations =  1.0

     total cpu time spent up to now is      118.9 secs

     total energy              =    -184.83183063 Ry
     estimated scf accuracy    <          1.8E-15 Ry

     iteration # 47     ecut=    80.00 Ry     beta= 0.20
     Davidson diagonalization with overlap

---- Real-time Memory Report at c_bands before calling an iterative solver
            91 MiB given to the printing process from OS
            70 MiB allocation reported by mallinfo(arena+hblkhd)
        243594 MiB available memory on the node where the printing process lives
------------------
     ethr =  1.00E-13,  avg # of iterations =  1.0

     total cpu time spent up to now is      119.8 secs

     total energy              =    -184.83183063 Ry
     estimated scf accuracy    <          2.2E-15 Ry

     iteration # 48     ecut=    80.00 Ry     beta= 0.20
     Davidson diagonalization with overlap

---- Real-time Memory Report at c_bands before calling an iterative solver
            91 MiB given to the printing process from OS
            70 MiB allocation reported by mallinfo(arena+hblkhd)
        243594 MiB available memory on the node where the printing process lives
------------------
     ethr =  1.00E-13,  avg # of iterations =  1.0

     total cpu time spent up to now is      120.8 secs

     total energy              =    -184.83183063 Ry
     estimated scf accuracy    <          2.9E-15 Ry

     iteration # 49     ecut=    80.00 Ry     beta= 0.20
     Davidson diagonalization with overlap

---- Real-time Memory Report at c_bands before calling an iterative solver
            91 MiB given to the printing process from OS
            70 MiB allocation reported by mallinfo(arena+hblkhd)
        243594 MiB available memory on the node where the printing process lives
------------------
     ethr =  1.00E-13,  avg # of iterations =  1.0

     total cpu time spent up to now is      121.7 secs

     total energy              =    -184.83183063 Ry
     estimated scf accuracy    <          1.9E-15 Ry

     iteration # 50     ecut=    80.00 Ry     beta= 0.20
     Davidson diagonalization with overlap

---- Real-time Memory Report at c_bands before calling an iterative solver
            91 MiB given to the printing process from OS
            70 MiB allocation reported by mallinfo(arena+hblkhd)
        243594 MiB available memory on the node where the printing process lives
------------------
     ethr =  1.00E-13,  avg # of iterations =  1.0

     total cpu time spent up to now is      122.7 secs

     total energy              =    -184.83183063 Ry
     estimated scf accuracy    <          1.3E-15 Ry

     iteration # 51     ecut=    80.00 Ry     beta= 0.20
     Davidson diagonalization with overlap

---- Real-time Memory Report at c_bands before calling an iterative solver
            91 MiB given to the printing process from OS
            70 MiB allocation reported by mallinfo(arena+hblkhd)
        243594 MiB available memory on the node where the printing process lives
------------------
     ethr =  1.00E-13,  avg # of iterations =  1.0

     total cpu time spent up to now is      123.6 secs

     total energy              =    -184.83183063 Ry
     estimated scf accuracy    <          1.3E-15 Ry

     iteration # 52     ecut=    80.00 Ry     beta= 0.20
     Davidson diagonalization with overlap

---- Real-time Memory Report at c_bands before calling an iterative solver
            91 MiB given to the printing process from OS
            70 MiB allocation reported by mallinfo(arena+hblkhd)
        243594 MiB available memory on the node where the printing process lives
------------------
     ethr =  1.00E-13,  avg # of iterations =  1.0

     total cpu time spent up to now is      124.6 secs

     total energy              =    -184.83183063 Ry
     estimated scf accuracy    <          1.6E-15 Ry

     iteration # 53     ecut=    80.00 Ry     beta= 0.20
     Davidson diagonalization with overlap

---- Real-time Memory Report at c_bands before calling an iterative solver
            91 MiB given to the printing process from OS
            70 MiB allocation reported by mallinfo(arena+hblkhd)
        243590 MiB available memory on the node where the printing process lives
------------------
     ethr =  1.00E-13,  avg # of iterations =  1.0

     total cpu time spent up to now is      125.5 secs

     total energy              =    -184.83183063 Ry
     estimated scf accuracy    <          2.4E-15 Ry

     iteration # 54     ecut=    80.00 Ry     beta= 0.20
     Davidson diagonalization with overlap

---- Real-time Memory Report at c_bands before calling an iterative solver
            91 MiB given to the printing process from OS
            70 MiB allocation reported by mallinfo(arena+hblkhd)
        243590 MiB available memory on the node where the printing process lives
------------------
     ethr =  1.00E-13,  avg # of iterations =  1.0

     total cpu time spent up to now is      126.5 secs

     total energy              =    -184.83183063 Ry
     estimated scf accuracy    <          5.4E-15 Ry

     iteration # 55     ecut=    80.00 Ry     beta= 0.20
     Davidson diagonalization with overlap

---- Real-time Memory Report at c_bands before calling an iterative solver
            91 MiB given to the printing process from OS
            70 MiB allocation reported by mallinfo(arena+hblkhd)
        243590 MiB available memory on the node where the printing process lives
------------------
     ethr =  1.00E-13,  avg # of iterations =  1.0

     total cpu time spent up to now is      127.4 secs

     total energy              =    -184.83183063 Ry
     estimated scf accuracy    <          2.1E-15 Ry

     iteration # 56     ecut=    80.00 Ry     beta= 0.20
     Davidson diagonalization with overlap

---- Real-time Memory Report at c_bands before calling an iterative solver
            91 MiB given to the printing process from OS
            70 MiB allocation reported by mallinfo(arena+hblkhd)
        243590 MiB available memory on the node where the printing process lives
------------------
     ethr =  1.00E-13,  avg # of iterations =  1.0

     total cpu time spent up to now is      128.4 secs

     total energy              =    -184.83183063 Ry
     estimated scf accuracy    <          1.1E-15 Ry

     iteration # 57     ecut=    80.00 Ry     beta= 0.20
     Davidson diagonalization with overlap

---- Real-time Memory Report at c_bands before calling an iterative solver
            91 MiB given to the printing process from OS
            70 MiB allocation reported by mallinfo(arena+hblkhd)
        243590 MiB available memory on the node where the printing process lives
------------------
     ethr =  1.00E-13,  avg # of iterations =  1.0

     total cpu time spent up to now is      129.3 secs

     total energy              =    -184.83183063 Ry
     estimated scf accuracy    <          1.9E-15 Ry

     iteration # 58     ecut=    80.00 Ry     beta= 0.20
     Davidson diagonalization with overlap

---- Real-time Memory Report at c_bands before calling an iterative solver
            91 MiB given to the printing process from OS
            70 MiB allocation reported by mallinfo(arena+hblkhd)
        243591 MiB available memory on the node where the printing process lives
------------------
     ethr =  1.00E-13,  avg # of iterations =  1.0

     total cpu time spent up to now is      130.3 secs

     End of self-consistent calculation

          k = 0.0000 0.0000 0.0000 ( 14855 PWs)   bands (ev):

   -61.8980 -36.1031 -35.8397 -35.8397 -15.3934 -14.0323  -6.9410  -3.7977
    -3.7977  -3.0153  -2.6421  -2.6420  -1.2417

     occupation numbers 
     1.0000   1.0000   1.0000   1.0000   1.0000   1.0000   1.0000   1.0000
     1.0000   1.0000   1.0000   1.0000   1.0000

          k = 0.0000 0.0550 0.0000 ( 14883 PWs)   bands (ev):

   -61.8970 -36.1011 -35.8495 -35.8419 -15.3574 -14.0176  -6.8999  -3.8796
    -3.7600  -3.2322  -2.7010  -2.4763  -1.2542

     occupation numbers 
     1.0000   1.0000   1.0000   1.0000   1.0000   1.0000   1.0000   1.0000
     1.0000   1.0000   1.0000   1.0000   1.0000

          k = 0.0000 0.1100 0.0000 ( 14863 PWs)   bands (ev):

   -61.8941 -36.0955 -35.8780 -35.8483 -15.2514 -13.9744  -6.7823  -4.1032
    -3.6492  -3.5889  -2.8625  -2.2880  -1.3027

     occupation numbers 
     1.0000   1.0000   1.0000   1.0000   1.0000   1.0000   1.0000   1.0000
     1.0000   1.0000   1.0000   1.0000   1.0000

          k = 0.0000 0.1650 0.0000 ( 14855 PWs)   bands (ev):

   -61.8896 -36.0867 -35.9224 -35.8584 -15.0806 -13.9048  -6.6075  -4.4136
    -3.9709  -3.4731  -3.0909  -2.2206  -1.4162

     occupation numbers 
     1.0000   1.0000   1.0000   1.0000   1.0000   1.0000   1.0000   1.0000
     1.0000   1.0000   1.0000   1.0000   1.0000

          k = 0.0000 0.2199 0.0000 ( 14815 PWs)   bands (ev):

   -61.8838 -36.0754 -35.9785 -35.8712 -14.8540 -13.8127  -6.4191  -4.7384
    -4.3610  -3.3491  -3.2452  -2.2918  -1.6177

     occupation numbers 
     1.0000   1.0000   1.0000   1.0000   1.0000   1.0000   1.0000   1.0000
     1.0000   1.0000   1.0000   1.0000   1.0000

          k = 0.0000 0.2749 0.0000 ( 14799 PWs)   bands (ev):

   -61.8773 -36.0626 -36.0410 -35.8856 -14.5846 -13.7038  -6.3027  -4.9884
    -4.7512  -3.6074  -2.9849  -2.4565  -1.8791

     occupation numbers 
     1.0000   1.0000   1.0000   1.0000   1.0000   1.0000   1.0000   1.0000
     1.0000   1.0000   1.0000   1.0000   1.0000

          k = 0.0000 0.3299 0.0000 ( 14811 PWs)   bands (ev):

   -61.8707 -36.1044 -36.0496 -35.9002 -14.2898 -13.5860  -6.3574  -5.1297
    -5.0936  -3.8450  -2.7178  -2.6489  -2.1078

     occupation numbers 
     1.0000   1.0000   1.0000   1.0000   1.0000   1.0000   1.0000   1.0000
     1.0000   1.0000   1.0000   1.0000   1.0000

          k = 0.0000 0.3849 0.0000 ( 14770 PWs)   bands (ev):

   -61.8644 -36.1630 -36.0374 -35.9139 -13.9923 -13.4692  -6.5575  -5.4777
    -5.1222  -4.0478  -2.8217  -2.4724  -2.2005

     occupation numbers 
     1.0000   1.0000   1.0000   1.0000   1.0000   1.0000   1.0000   1.0000
     1.0000   1.0000   1.0000   1.0000   1.0000

          k = 0.0000 0.4399 0.0000 ( 14722 PWs)   bands (ev):

   -61.8592 -36.2119 -36.0271 -35.9253 -13.7212 -13.3652  -6.7940  -5.7707
    -5.1806  -4.2066  -2.9535  -2.2745  -2.1279

     occupation numbers 
     1.0000   1.0000   1.0000   1.0000   1.0000   1.0000   1.0000   1.0000
     1.0000   1.0000   1.0000   1.0000   1.0000

          k = 0.0000 0.4949 0.0000 ( 14716 PWs)   bands (ev):

   -61.8554 -36.2468 -36.0197 -35.9335 -13.5107 -13.2865  -6.9910  -5.9836
    -5.2663  -4.3154  -3.0392  -2.1399  -1.9693

     occupation numbers 
     1.0000   1.0000   1.0000   1.0000   1.0000   1.0000   1.0000   1.0000
     1.0000   1.0000   1.0000   1.0000   1.0000

          k = 0.0000 0.5499 0.0000 ( 14720 PWs)   bands (ev):

   -61.8535 -36.2651 -36.0158 -35.9378 -13.3944 -13.2439  -7.1021  -6.0958
    -5.3266  -4.3706  -3.0809  -2.0732  -1.8479

     occupation numbers 
     1.0000   1.0000   1.0000   1.0000   1.0000   1.0000   1.0000   1.0000
     1.0000   1.0000   1.0000   1.0000   1.0000

          k = 0.0476 0.0825 0.0000 ( 14875 PWs)   bands (ev):

   -61.8951 -36.0973 -35.8685 -35.8464 -15.2864 -13.9887  -6.8205  -4.0316
    -3.6863  -3.4848  -2.8271  -2.3165  -1.2846

     occupation numbers 
     1.0000   1.0000   1.0000   1.0000   1.0000   1.0000   1.0000   1.0000
     1.0000   1.0000   1.0000   1.0000   1.0000

          k = 0.0476 0.1375 0.0000 ( 14858 PWs)   bands (ev):

   -61.8914 -36.0901 -35.9044 -35.8551 -15.1480 -13.9322  -6.6732  -4.2963
    -3.8166  -3.5453  -3.0579  -2.1850  -1.3655

     occupation numbers 
     1.0000   1.0000   1.0000   1.0000   1.0000   1.0000   1.0000   1.0000
     1.0000   1.0000   1.0000   1.0000   1.0000

          k = 0.0476 0.1925 0.0000 ( 14822 PWs)   bands (ev):

   -61.8862 -36.0800 -35.9540 -35.8672 -14.9492 -13.8512  -6.4875  -4.6108
    -4.1758  -3.3496  -3.3371  -2.1714  -1.5242

     occupation numbers 
     1.0000   1.0000   1.0000   1.0000   1.0000   1.0000   1.0000   1.0000
     1.0000   1.0000   1.0000   1.0000   1.0000

          k = 0.0476 0.2474 0.0000 ( 14793 PWs)   bands (ev):

   -61.8801 -36.0680 -36.0126 -35.8816 -14.7009 -13.7504  -6.3259  -4.8949
    -4.5521  -3.6155  -3.1201  -2.2800  -1.7585

     occupation numbers 
     1.0000   1.0000   1.0000   1.0000   1.0000   1.0000   1.0000   1.0000
     1.0000   1.0000   1.0000   1.0000   1.0000

          k = 0.0476 0.3024 0.0000 ( 14812 PWs)   bands (ev):

   -61.8735 -36.0747 -36.0552 -35.8969 -14.4181 -13.6365  -6.2923  -5.0579
    -4.9370  -3.8603  -2.8903  -2.4620  -1.9973

     occupation numbers 
     1.0000   1.0000   1.0000   1.0000   1.0000   1.0000   1.0000   1.0000
     1.0000   1.0000   1.0000   1.0000   1.0000

          k = 0.0476 0.3574 0.0000 ( 14790 PWs)   bands (ev):

   -61.8671 -36.1349 -36.0425 -35.9119 -14.1209 -13.5183  -6.4323  -5.3105
    -5.0954  -4.0574  -2.7058  -2.6603  -2.1167

     occupation numbers 
     1.0000   1.0000   1.0000   1.0000   1.0000   1.0000   1.0000   1.0000
     1.0000   1.0000   1.0000   1.0000   1.0000

          k = 0.0476 0.4124 0.0000 ( 14759 PWs)   bands (ev):

   -61.8613 -36.1879 -36.0313 -35.9251 -13.8348 -13.4067  -6.6571  -5.6442
    -5.1276  -4.2055  -2.8359  -2.5732  -2.0576

     occupation numbers 
     1.0000   1.0000   1.0000   1.0000   1.0000   1.0000   1.0000   1.0000
     1.0000   1.0000   1.0000   1.0000   1.0000

          k = 0.0476 0.4674 0.0000 ( 14731 PWs)   bands (ev):

   -61.8568 -36.2292 -36.0224 -35.9355 -13.5917 -13.3141  -6.8739  -5.9087
    -5.2065  -4.3078  -2.9686  -2.4450  -1.9097

     occupation numbers 
     1.0000   1.0000   1.0000   1.0000   1.0000   1.0000   1.0000   1.0000
     1.0000   1.0000   1.0000   1.0000   1.0000

          k = 0.0476 0.5224 0.0000 ( 14718 PWs)   bands (ev):

   -61.8540 -36.2554 -36.0168 -35.9421 -13.4261 -13.2524  -7.0270  -6.0788
    -5.2882  -4.3677  -3.0498  -2.3443  -1.7681

     occupation numbers 
     1.0000   1.0000   1.0000   1.0000   1.0000   1.0000   1.0000   1.0000
     1.0000   1.0000   1.0000   1.0000   1.0000

          k = 0.0476 0.5774 0.0000 ( 14714 PWs)   bands (ev):

   -61.8530 -36.2644 -36.0148 -35.9444 -13.3671 -13.2307  -7.0822  -6.1375
    -5.3216  -4.3875  -3.0770  -2.3079  -1.7086

     occupation numbers 
     1.0000   1.0000   1.0000   1.0000   1.0000   1.0000   1.0000   1.0000
     1.0000   1.0000   1.0000   1.0000   1.0000

          k = 0.0952 0.1650 0.0000 ( 14827 PWs)   bands (ev):

   -61.8870 -36.0816 -35.9448 -35.8666 -14.9814 -13.8642  -6.5120  -4.5615
    -4.0841  -3.3899  -3.3882  -2.0923  -1.4922

     occupation numbers 
     1.0000   1.0000   1.0000   1.0000   1.0000   1.0000   1.0000   1.0000
     1.0000   1.0000   1.0000   1.0000   1.0000

          k = 0.0952 0.2199 0.0000 ( 14813 PWs)   bands (ev):

   -61.8815 -36.0709 -35.9954 -35.8817 -14.7606 -13.7742  -6.3422  -4.8302
    -4.3815  -3.7454  -3.2087  -2.0971  -1.6883

     occupation numbers 
     1.0000   1.0000   1.0000   1.0000   1.0000   1.0000   1.0000   1.0000
     1.0000   1.0000   1.0000   1.0000   1.0000

          k = 0.0952 0.2749 0.0000 ( 14793 PWs)   bands (ev):

   -61.8753 -36.0587 -36.0518 -35.8988 -14.4982 -13.6676  -6.2490  -5.0141
    -4.7336  -4.0341  -3.0467  -2.2135  -1.9052

     occupation numbers 
     1.0000   1.0000   1.0000   1.0000   1.0000   1.0000   1.0000   1.0000
     1.0000   1.0000   1.0000   1.0000   1.0000

          k = 0.0952 0.3299 0.0000 ( 14799 PWs)   bands (ev):

   -61.8689 -36.1088 -36.0462 -35.9163 -14.2114 -13.5519  -6.3148  -5.1289
    -5.0589  -4.2205  -2.9614  -2.4037  -2.0310

     occupation numbers 
     1.0000   1.0000   1.0000   1.0000   1.0000   1.0000   1.0000   1.0000
     1.0000   1.0000   1.0000   1.0000   1.0000

          k = 0.0952 0.3849 0.0000 ( 14771 PWs)   bands (ev):

   -61.8630 -36.1616 -36.0346 -35.9326 -13.9229 -13.4369  -6.4985  -5.5138
    -5.0556  -4.3270  -2.9376  -2.6181  -2.0014

     occupation numbers 
     1.0000   1.0000   1.0000   1.0000   1.0000   1.0000   1.0000   1.0000
     1.0000   1.0000   1.0000   1.0000   1.0000

          k = 0.0952 0.4399 0.0000 ( 14747 PWs)   bands (ev):

   -61.8580 -36.2056 -36.0247 -35.9463 -13.6609 -13.3342  -6.7051  -5.8411
    -5.1100  -4.3795  -2.8849  -2.8164  -1.8752

     occupation numbers 
     1.0000   1.0000   1.0000   1.0000   1.0000   1.0000   1.0000   1.0000
     1.0000   1.0000   1.0000   1.0000   1.0000

          k = 0.0952 0.4949 0.0000 ( 14735 PWs)   bands (ev):

   -61.8544 -36.2371 -36.0177 -35.9562 -13.4582 -13.2563  -6.8737  -6.0778
    -5.2057  -4.3985  -2.9687  -2.8056  -1.7221

     occupation numbers 
     1.0000   1.0000   1.0000   1.0000   1.0000   1.0000   1.0000   1.0000
     1.0000   1.0000   1.0000   1.0000   1.0000

          k = 0.0952 0.5499 0.0000 ( 14714 PWs)   bands (ev):

   -61.8525 -36.2536 -36.0139 -35.9613 -13.3466 -13.2140  -6.9681  -6.2019
    -5.2748  -4.4020  -3.0518  -2.7536  -1.6126

     occupation numbers 
     1.0000   1.0000   1.0000   1.0000   1.0000   1.0000   1.0000   1.0000
     1.0000   1.0000   1.0000   1.0000   1.0000

          k = 0.1429 0.2474 0.0000 ( 14801 PWs)   bands (ev):

   -61.8759 -36.0599 -36.0429 -35.9005 -14.5254 -13.6781  -6.2338  -4.9945
    -4.6117  -4.1579  -3.1070  -2.1023  -1.8714

     occupation numbers 
     1.0000   1.0000   1.0000   1.0000   1.0000   1.0000   1.0000   1.0000
     1.0000   1.0000   1.0000   1.0000   1.0000

          k = 0.1429 0.3024 0.0000 ( 14798 PWs)   bands (ev):

   -61.8699 -36.0923 -36.0482 -35.9215 -14.2582 -13.5689  -6.2422  -5.0320
    -4.9657  -4.4007  -3.1163  -2.2156  -1.9873

     occupation numbers 
     1.0000   1.0000   1.0000   1.0000   1.0000   1.0000   1.0000   1.0000
     1.0000   1.0000   1.0000   1.0000   1.0000

          k = 0.1429 0.3574 0.0000 ( 14791 PWs)   bands (ev):

   -61.8641 -36.1398 -36.0367 -35.9426 -13.9785 -13.4551  -6.3673  -5.3904
    -4.9851  -4.4844  -3.2263  -2.4094  -1.9809

     occupation numbers 
     1.0000   1.0000   1.0000   1.0000   1.0000   1.0000   1.0000   1.0000
     1.0000   1.0000   1.0000   1.0000   1.0000

          k = 0.1429 0.4124 0.0000 ( 14771 PWs)   bands (ev):

   -61.8588 -36.1815 -36.0264 -35.9615 -13.7111 -13.3471  -6.5329  -5.7783
    -4.9859  -4.4913  -3.3116  -2.6367  -1.8835

     occupation numbers 
     1.0000   1.0000   1.0000   1.0000   1.0000   1.0000   1.0000   1.0000
     1.0000   1.0000   1.0000   1.0000   1.0000

          k = 0.1429 0.4674 0.0000 ( 14749 PWs)   bands (ev):

   -61.8547 -36.2139 -36.0183 -35.9764 -13.4856 -13.2570  -6.6809  -6.0820
    -5.0776  -4.4575  -3.3139  -2.8514  -1.7341

     occupation numbers 
     1.0000   1.0000   1.0000   1.0000   1.0000   1.0000   1.0000   1.0000
     1.0000   1.0000   1.0000   1.0000   1.0000

          k = 0.1429 0.5224 0.0000 ( 14744 PWs)   bands (ev):

   -61.8521 -36.2345 -36.0132 -35.9859 -13.3333 -13.1967  -6.7809  -6.2750
    -5.1860  -4.4135  -3.2839  -3.0093  -1.5852

     occupation numbers 
     1.0000   1.0000   1.0000   1.0000   1.0000   1.0000   1.0000   1.0000
     1.0000   1.0000   1.0000   1.0000   1.0000

          k = 0.1429 0.5774 0.0000 ( 14722 PWs)   bands (ev):

   -61.8512 -36.2415 -36.0114 -35.9892 -13.2792 -13.1754  -6.8161  -6.3411
    -5.2315  -4.3931  -3.2696  -3.0685  -1.5200

     occupation numbers 
     1.0000   1.0000   1.0000   1.0000   1.0000   1.0000   1.0000   1.0000
     1.0000   1.0000   1.0000   1.0000   1.0000

          k = 0.1905 0.3299 0.0000 ( 14781 PWs)   bands (ev):

   -61.8644 -36.1310 -36.0374 -35.9473 -13.9974 -13.4612  -6.3155  -5.3315
    -4.9533  -4.5608  -3.3396  -2.3235  -1.9767

     occupation numbers 
     1.0000   1.0000   1.0000   1.0000   1.0000   1.0000   1.0000   1.0000
     1.0000   1.0000   1.0000   1.0000   1.0000

          k = 0.1905 0.3849 0.0000 ( 14753 PWs)   bands (ev):

   -61.8593 -36.1652 -36.0273 -35.9732 -13.7374 -13.3533  -6.4211  -5.7359
    -4.8756  -4.5732  -3.6017  -2.5155  -1.8989

     occupation numbers 
     1.0000   1.0000   1.0000   1.0000   1.0000   1.0000   1.0000   1.0000
     1.0000   1.0000   1.0000   1.0000   1.0000

          k = 0.1905 0.4399 0.0000 ( 14749 PWs)   bands (ev):

   -61.8550 -36.1925 -36.0188 -35.9960 -13.5041 -13.2563  -6.5129  -6.0853
    -4.9103  -4.5137  -3.7692  -2.7453  -1.7626

     occupation numbers 
     1.0000   1.0000   1.0000   1.0000   1.0000   1.0000   1.0000   1.0000
     1.0000   1.0000   1.0000   1.0000   1.0000

          k = 0.1905 0.4949 0.0000 ( 14736 PWs)   bands (ev):

   -61.8518 -36.2116 -36.0130 -36.0127 -13.3259 -13.1823  -6.5706  -6.3376
    -5.0476  -4.4247  -3.8173  -2.9591  -1.5906

     occupation numbers 
     1.0000   1.0000   1.0000   1.0000   1.0000   1.0000   1.0000   1.0000
     1.0000   1.0000   1.0000   1.0000   1.0000

          k = 0.1905 0.5499 0.0000 ( 14754 PWs)   bands (ev):

   -61.8502 -36.2213 -36.0221 -36.0095 -13.2288 -13.1419  -6.5946  -6.4696
    -5.1610  -4.3549  -3.8194  -3.0949  -1.4597

     occupation numbers 
     1.0000   1.0000   1.0000   1.0000   1.0000   1.0000   1.0000   1.0000
     1.0000   1.0000   1.0000   1.0000   1.0000

          k = 0.2381 0.4124 0.0000 ( 14762 PWs)   bands (ev):

   -61.8550 -36.1833 -36.0189 -36.0047 -13.5106 -13.2559  -6.4449  -6.0863
    -4.8003  -4.5365  -3.9880  -2.7023  -1.7760

     occupation numbers 
     1.0000   1.0000   1.0000   1.0000   1.0000   1.0000   1.0000   1.0000
     1.0000   1.0000   1.0000   1.0000   1.0000

          k = 0.2381 0.4674 0.0000 ( 14739 PWs)   bands (ev):

   -61.8517 -36.1940 -36.0328 -36.0124 -13.3228 -13.1740  -6.4232  -6.3734
    -4.8629  -4.4327  -4.2451  -2.9238  -1.6008

     occupation numbers 
     1.0000   1.0000   1.0000   1.0000   1.0000   1.0000   1.0000   1.0000
     1.0000   1.0000   1.0000   1.0000   1.0000

          k = 0.2381 0.5224 0.0000 ( 14764 PWs)   bands (ev):

   -61.8496 -36.1988 -36.0529 -36.0082 -13.1981 -13.1189  -6.5593  -6.3691
    -5.0528  -4.3174  -4.3160  -3.1175  -1.4202

     occupation numbers 
     1.0000   1.0000   1.0000   1.0000   1.0000   1.0000   1.0000   1.0000
     1.0000   1.0000   1.0000   1.0000   1.0000

          k = 0.2381 0.5774 0.0000 ( 14776 PWs)   bands (ev):

   -61.8488 -36.1999 -36.0602 -36.0068 -13.1543 -13.0994  -6.6235  -6.3367
    -5.1518  -4.3258  -4.2606  -3.1997  -1.3382

     occupation numbers 
     1.0000   1.0000   1.0000   1.0000   1.0000   1.0000   1.0000   1.0000
     1.0000   1.0000   1.0000   1.0000   1.0000

          k = 0.2857 0.4949 0.0000 ( 14730 PWs)   bands (ev):

   -61.8493 -36.1873 -36.0672 -36.0078 -13.1878 -13.1107  -6.5914  -6.2650
    -4.9418  -4.5885  -4.3001  -3.1261  -1.4056

     occupation numbers 
     1.0000   1.0000   1.0000   1.0000   1.0000   1.0000   1.0000   1.0000
     1.0000   1.0000   1.0000   1.0000   1.0000

          k = 0.2857 0.5499 0.0000 ( 14738 PWs)   bands (ev):

   -61.8481 -36.1780 -36.0910 -36.0054 -13.1156 -13.0761  -6.7079  -6.0947
    -5.1853  -4.6603  -4.1858  -3.2774  -1.2540

     occupation numbers 
     1.0000   1.0000   1.0000   1.0000   1.0000   1.0000   1.0000   1.0000
     1.0000   1.0000   1.0000   1.0000   1.0000

          k = 0.3333 0.5774 0.0000 ( 14760 PWs)   bands (ev):

   -61.8476 -36.1622 -36.1127 -36.0044 -13.0871 -13.0609  -6.7601  -5.8954
    -5.3710  -4.7442  -4.1203  -3.3529  -1.1785

     occupation numbers 
     1.0000   1.0000   1.0000   1.0000   1.0000   1.0000   1.0000   1.0000
     1.0000   1.0000   1.0000   1.0000   1.0000

     highest occupied level (ev):    -1.1785

!    total energy              =    -184.83183063 Ry
     estimated scf accuracy    <          9.5E-16 Ry

     convergence has been achieved in  58 iterations

     Forces acting on atoms (cartesian axes, Ry/au):

     atom    1 type  1   force =     0.00000000    0.00000000    0.00000000
     atom    2 type  2   force =     0.00000000   -0.00000000   -0.00054366
     atom    3 type  2   force =     0.00000000    0.00000000    0.00054366
     The non-local contrib.  to forces
     atom    1 type  1   force =     0.00000000   -0.00000000    0.00000000
     atom    2 type  2   force =     0.00000000   -0.00000000   -0.25621380
     atom    3 type  2   force =     0.00000000   -0.00000000    0.25621380
     The ionic contribution  to forces
     atom    1 type  1   force =     0.00000001    0.00000097    0.00000000
     atom    2 type  2   force =    -0.00000000   -0.00000048   37.43167626
     atom    3 type  2   force =    -0.00000000   -0.00000048  -37.43167626
     The local contribution  to forces
     atom    1 type  1   force =    -0.00000000    0.00002380    0.00000000
     atom    2 type  2   force =    -0.00000001    0.00000001  -37.18021293
     atom    3 type  2   force =    -0.00000001    0.00000001   37.18021293
     The core correction contribution to forces
     atom    1 type  1   force =     0.00000000   -0.00000040   -0.00000000
     atom    2 type  2   force =     0.00000000   -0.00000000    0.00420687
     atom    3 type  2   force =     0.00000000   -0.00000000   -0.00420687
     The Hubbard contrib.    to forces
     atom    1 type  1   force =     0.00000000    0.00000000    0.00000000
     atom    2 type  2   force =     0.00000000    0.00000000    0.00000000
     atom    3 type  2   force =     0.00000000    0.00000000    0.00000000
     The SCF correction term to forces
     atom    1 type  1   force =     0.00000000    0.00000000    0.00000000
     atom    2 type  2   force =     0.00000000   -0.00000000   -0.00000005
     atom    3 type  2   force =     0.00000000   -0.00000000    0.00000005

     Total force =     0.000769     Total SCF correction =     0.000000

     Entering Dynamics:    iteration =     2

     <vel(dt)|acc(dt)> =   1.00000000

ATOMIC_POSITIONS (crystal)
Mo               0.3333333000        0.6666666000        0.5000000000    0   0   0
S                0.6666666670        0.3333333330        0.5736036433    0   0   1
S                0.6666666670        0.3333333330        0.4263963567    0   0   1



     Writing config-only to output data dir ./tmp/MoS2.save/ :
     XML data file
     NEW-OLD atomic charge density approx. for the potential

     total cpu time spent up to now is      130.5 secs

     per-process dynamical memory:    72.0 Mb

     Self-consistent Calculation

     iteration #  1     ecut=    80.00 Ry     beta= 0.20
     Davidson diagonalization with overlap

---- Real-time Memory Report at c_bands before calling an iterative solver
            92 MiB given to the printing process from OS
            70 MiB allocation reported by mallinfo(arena+hblkhd)
        243591 MiB available memory on the node where the printing process lives
------------------
     ethr =  1.00E-06,  avg # of iterations =  1.0

     Threshold (ethr) on eigenvalues was too large:
     Diagonalizing with lowered threshold

     Davidson diagonalization with overlap

---- Real-time Memory Report at c_bands before calling an iterative solver
            92 MiB given to the printing process from OS
            70 MiB allocation reported by mallinfo(arena+hblkhd)
        243591 MiB available memory on the node where the printing process lives
------------------
     ethr =  3.80E-09,  avg # of iterations =  4.8

     total cpu time spent up to now is      133.0 secs

     total energy              =    -184.83183127 Ry
     estimated scf accuracy    <       0.00000003 Ry

     iteration #  2     ecut=    80.00 Ry     beta= 0.20
     Davidson diagonalization with overlap

---- Real-time Memory Report at c_bands before calling an iterative solver
            92 MiB given to the printing process from OS
            70 MiB allocation reported by mallinfo(arena+hblkhd)
        243593 MiB available memory on the node where the printing process lives
------------------
     ethr =  1.23E-10,  avg # of iterations =  5.7

     total cpu time spent up to now is      134.5 secs

     total energy              =    -184.83183129 Ry
     estimated scf accuracy    <       0.00000005 Ry

     iteration #  3     ecut=    80.00 Ry     beta= 0.20
     Davidson diagonalization with overlap

---- Real-time Memory Report at c_bands before calling an iterative solver
            92 MiB given to the printing process from OS
            70 MiB allocation reported by mallinfo(arena+hblkhd)
        243593 MiB available memory on the node where the printing process lives
------------------
     ethr =  1.23E-10,  avg # of iterations =  1.0

     total cpu time spent up to now is      135.5 secs

     total energy              =    -184.83183126 Ry
     estimated scf accuracy    <       0.00000004 Ry

     iteration #  4     ecut=    80.00 Ry     beta= 0.20
     Davidson diagonalization with overlap

---- Real-time Memory Report at c_bands before calling an iterative solver
            92 MiB given to the printing process from OS
            70 MiB allocation reported by mallinfo(arena+hblkhd)
        243593 MiB available memory on the node where the printing process lives
------------------
     ethr =  1.23E-10,  avg # of iterations =  5.6

     total cpu time spent up to now is      137.3 secs

     total energy              =    -184.83183129 Ry
     estimated scf accuracy    <       0.00000020 Ry

     iteration #  5     ecut=    80.00 Ry     beta= 0.20
     Davidson diagonalization with overlap

---- Real-time Memory Report at c_bands before calling an iterative solver
            92 MiB given to the printing process from OS
            70 MiB allocation reported by mallinfo(arena+hblkhd)
        243596 MiB available memory on the node where the printing process lives
------------------
     ethr =  1.23E-10,  avg # of iterations =  1.8

     total cpu time spent up to now is      138.3 secs

     total energy              =    -184.83183125 Ry
     estimated scf accuracy    <       0.00000013 Ry

     iteration #  6     ecut=    80.00 Ry     beta= 0.20
     Davidson diagonalization with overlap

---- Real-time Memory Report at c_bands before calling an iterative solver
            92 MiB given to the printing process from OS
            70 MiB allocation reported by mallinfo(arena+hblkhd)
        243596 MiB available memory on the node where the printing process lives
------------------
     ethr =  1.23E-10,  avg # of iterations =  5.9

     total cpu time spent up to now is      139.9 secs

     total energy              =    -184.83183128 Ry
     estimated scf accuracy    <       0.00000001 Ry

     iteration #  7     ecut=    80.00 Ry     beta= 0.20
     Davidson diagonalization with overlap

---- Real-time Memory Report at c_bands before calling an iterative solver
            92 MiB given to the printing process from OS
            70 MiB allocation reported by mallinfo(arena+hblkhd)
        243597 MiB available memory on the node where the printing process lives
------------------
     ethr =  5.72E-11,  avg # of iterations =  2.3

     total cpu time spent up to now is      140.9 secs

     total energy              =    -184.83183128 Ry
     estimated scf accuracy    <          3.3E-09 Ry

     iteration #  8     ecut=    80.00 Ry     beta= 0.20
     Davidson diagonalization with overlap

---- Real-time Memory Report at c_bands before calling an iterative solver
            92 MiB given to the printing process from OS
            70 MiB allocation reported by mallinfo(arena+hblkhd)
        243597 MiB available memory on the node where the printing process lives
------------------
     ethr =  1.27E-11,  avg # of iterations =  5.9

     total cpu time spent up to now is      142.6 secs

     total energy              =    -184.83183128 Ry
     estimated scf accuracy    <          7.5E-09 Ry

     iteration #  9     ecut=    80.00 Ry     beta= 0.20
     Davidson diagonalization with overlap

---- Real-time Memory Report at c_bands before calling an iterative solver
            92 MiB given to the printing process from OS
            70 MiB allocation reported by mallinfo(arena+hblkhd)
        243590 MiB available memory on the node where the printing process lives
------------------
     ethr =  1.27E-11,  avg # of iterations =  1.6

     total cpu time spent up to now is      143.6 secs

     total energy              =    -184.83183128 Ry
     estimated scf accuracy    <          4.2E-09 Ry

     iteration # 10     ecut=    80.00 Ry     beta= 0.20
     Davidson diagonalization with overlap

---- Real-time Memory Report at c_bands before calling an iterative solver
            92 MiB given to the printing process from OS
            70 MiB allocation reported by mallinfo(arena+hblkhd)
        243595 MiB available memory on the node where the printing process lives
------------------
     ethr =  1.27E-11,  avg # of iterations =  4.1

     total cpu time spent up to now is      144.9 secs

     total energy              =    -184.83183128 Ry
     estimated scf accuracy    <          3.2E-10 Ry

     iteration # 11     ecut=    80.00 Ry     beta= 0.20
     Davidson diagonalization with overlap

---- Real-time Memory Report at c_bands before calling an iterative solver
            92 MiB given to the printing process from OS
            70 MiB allocation reported by mallinfo(arena+hblkhd)
        243595 MiB available memory on the node where the printing process lives
------------------
     ethr =  1.24E-12,  avg # of iterations =  4.9

     total cpu time spent up to now is      146.5 secs

     total energy              =    -184.83183128 Ry
     estimated scf accuracy    <          1.8E-09 Ry

     iteration # 12     ecut=    80.00 Ry     beta= 0.20
     Davidson diagonalization with overlap

---- Real-time Memory Report at c_bands before calling an iterative solver
            92 MiB given to the printing process from OS
            70 MiB allocation reported by mallinfo(arena+hblkhd)
        243595 MiB available memory on the node where the printing process lives
------------------
     ethr =  1.24E-12,  avg # of iterations =  1.0

     total cpu time spent up to now is      147.4 secs

     total energy              =    -184.83183128 Ry
     estimated scf accuracy    <          1.4E-09 Ry

     iteration # 13     ecut=    80.00 Ry     beta= 0.20
     Davidson diagonalization with overlap

---- Real-time Memory Report at c_bands before calling an iterative solver
            92 MiB given to the printing process from OS
            70 MiB allocation reported by mallinfo(arena+hblkhd)
        243595 MiB available memory on the node where the printing process lives
------------------
     ethr =  1.24E-12,  avg # of iterations =  4.1

     total cpu time spent up to now is      148.8 secs

     total energy              =    -184.83183128 Ry
     estimated scf accuracy    <          9.3E-11 Ry

     iteration # 14     ecut=    80.00 Ry     beta= 0.20
     Davidson diagonalization with overlap

---- Real-time Memory Report at c_bands before calling an iterative solver
            92 MiB given to the printing process from OS
            70 MiB allocation reported by mallinfo(arena+hblkhd)
        243595 MiB available memory on the node where the printing process lives
------------------
     ethr =  3.59E-13,  avg # of iterations =  2.6

     total cpu time spent up to now is      149.9 secs

     total energy              =    -184.83183128 Ry
     estimated scf accuracy    <          3.8E-11 Ry

     iteration # 15     ecut=    80.00 Ry     beta= 0.20
     Davidson diagonalization with overlap

---- Real-time Memory Report at c_bands before calling an iterative solver
            92 MiB given to the printing process from OS
            70 MiB allocation reported by mallinfo(arena+hblkhd)
        243595 MiB available memory on the node where the printing process lives
------------------
     ethr =  1.47E-13,  avg # of iterations =  2.9

     total cpu time spent up to now is      151.0 secs

     total energy              =    -184.83183128 Ry
     estimated scf accuracy    <          1.6E-11 Ry

     iteration # 16     ecut=    80.00 Ry     beta= 0.20
     Davidson diagonalization with overlap

---- Real-time Memory Report at c_bands before calling an iterative solver
            92 MiB given to the printing process from OS
            70 MiB allocation reported by mallinfo(arena+hblkhd)
        243595 MiB available memory on the node where the printing process lives
------------------
     ethr =  1.00E-13,  avg # of iterations =  4.0

     total cpu time spent up to now is      152.3 secs

     total energy              =    -184.83183128 Ry
     estimated scf accuracy    <          2.7E-14 Ry

     iteration # 17     ecut=    80.00 Ry     beta= 0.20
     Davidson diagonalization with overlap

---- Real-time Memory Report at c_bands before calling an iterative solver
            92 MiB given to the printing process from OS
            70 MiB allocation reported by mallinfo(arena+hblkhd)
        243595 MiB available memory on the node where the printing process lives
------------------
     ethr =  1.00E-13,  avg # of iterations =  1.1

     total cpu time spent up to now is      153.3 secs

     total energy              =    -184.83183128 Ry
     estimated scf accuracy    <          1.0E-12 Ry

     iteration # 18     ecut=    80.00 Ry     beta= 0.20
     Davidson diagonalization with overlap

---- Real-time Memory Report at c_bands before calling an iterative solver
            92 MiB given to the printing process from OS
            70 MiB allocation reported by mallinfo(arena+hblkhd)
        243594 MiB available memory on the node where the printing process lives
------------------
     ethr =  1.00E-13,  avg # of iterations =  1.0

     total cpu time spent up to now is      154.2 secs

     total energy              =    -184.83183128 Ry
     estimated scf accuracy    <          1.5E-12 Ry

     iteration # 19     ecut=    80.00 Ry     beta= 0.20
     Davidson diagonalization with overlap

---- Real-time Memory Report at c_bands before calling an iterative solver
            92 MiB given to the printing process from OS
            70 MiB allocation reported by mallinfo(arena+hblkhd)
        243594 MiB available memory on the node where the printing process lives
------------------
     ethr =  1.00E-13,  avg # of iterations =  1.0

     total cpu time spent up to now is      155.2 secs

     total energy              =    -184.83183128 Ry
     estimated scf accuracy    <          1.6E-12 Ry

     iteration # 20     ecut=    80.00 Ry     beta= 0.20
     Davidson diagonalization with overlap

---- Real-time Memory Report at c_bands before calling an iterative solver
            92 MiB given to the printing process from OS
            70 MiB allocation reported by mallinfo(arena+hblkhd)
        243594 MiB available memory on the node where the printing process lives
------------------
     ethr =  1.00E-13,  avg # of iterations =  1.0

     total cpu time spent up to now is      156.1 secs

     total energy              =    -184.83183128 Ry
     estimated scf accuracy    <          1.2E-12 Ry

     iteration # 21     ecut=    80.00 Ry     beta= 0.20
     Davidson diagonalization with overlap

---- Real-time Memory Report at c_bands before calling an iterative solver
            92 MiB given to the printing process from OS
            70 MiB allocation reported by mallinfo(arena+hblkhd)
        243594 MiB available memory on the node where the printing process lives
------------------
     ethr =  1.00E-13,  avg # of iterations =  1.0

     total cpu time spent up to now is      157.1 secs

     total energy              =    -184.83183128 Ry
     estimated scf accuracy    <          3.3E-12 Ry

     iteration # 22     ecut=    80.00 Ry     beta= 0.20
     Davidson diagonalization with overlap

---- Real-time Memory Report at c_bands before calling an iterative solver
            92 MiB given to the printing process from OS
            70 MiB allocation reported by mallinfo(arena+hblkhd)
        243594 MiB available memory on the node where the printing process lives
------------------
     ethr =  1.00E-13,  avg # of iterations =  1.0

     total cpu time spent up to now is      158.0 secs

     total energy              =    -184.83183128 Ry
     estimated scf accuracy    <          2.3E-12 Ry

     iteration # 23     ecut=    80.00 Ry     beta= 0.20
     Davidson diagonalization with overlap

---- Real-time Memory Report at c_bands before calling an iterative solver
            92 MiB given to the printing process from OS
            70 MiB allocation reported by mallinfo(arena+hblkhd)
        243594 MiB available memory on the node where the printing process lives
------------------
     ethr =  1.00E-13,  avg # of iterations =  1.0

     total cpu time spent up to now is      159.0 secs

     total energy              =    -184.83183128 Ry
     estimated scf accuracy    <          2.5E-12 Ry

     iteration # 24     ecut=    80.00 Ry     beta= 0.20
     Davidson diagonalization with overlap

---- Real-time Memory Report at c_bands before calling an iterative solver
            92 MiB given to the printing process from OS
            70 MiB allocation reported by mallinfo(arena+hblkhd)
        243589 MiB available memory on the node where the printing process lives
------------------
     ethr =  1.00E-13,  avg # of iterations =  1.0

     total cpu time spent up to now is      159.9 secs

     total energy              =    -184.83183128 Ry
     estimated scf accuracy    <          1.9E-12 Ry

     iteration # 25     ecut=    80.00 Ry     beta= 0.20
     Davidson diagonalization with overlap

---- Real-time Memory Report at c_bands before calling an iterative solver
            92 MiB given to the printing process from OS
            70 MiB allocation reported by mallinfo(arena+hblkhd)
        243592 MiB available memory on the node where the printing process lives
------------------
     ethr =  1.00E-13,  avg # of iterations =  1.0

     total cpu time spent up to now is      160.9 secs

     total energy              =    -184.83183128 Ry
     estimated scf accuracy    <          1.8E-12 Ry

     iteration # 26     ecut=    80.00 Ry     beta= 0.20
     Davidson diagonalization with overlap

---- Real-time Memory Report at c_bands before calling an iterative solver
            92 MiB given to the printing process from OS
            70 MiB allocation reported by mallinfo(arena+hblkhd)
        243592 MiB available memory on the node where the printing process lives
------------------
     ethr =  1.00E-13,  avg # of iterations =  1.0

     total cpu time spent up to now is      161.8 secs

     total energy              =    -184.83183128 Ry
     estimated scf accuracy    <          2.8E-12 Ry

     iteration # 27     ecut=    80.00 Ry     beta= 0.20
     Davidson diagonalization with overlap

---- Real-time Memory Report at c_bands before calling an iterative solver
            92 MiB given to the printing process from OS
            70 MiB allocation reported by mallinfo(arena+hblkhd)
        243592 MiB available memory on the node where the printing process lives
------------------
     ethr =  1.00E-13,  avg # of iterations =  1.0

     total cpu time spent up to now is      162.8 secs

     total energy              =    -184.83183128 Ry
     estimated scf accuracy    <          9.8E-13 Ry

     iteration # 28     ecut=    80.00 Ry     beta= 0.20
     Davidson diagonalization with overlap

---- Real-time Memory Report at c_bands before calling an iterative solver
            92 MiB given to the printing process from OS
            70 MiB allocation reported by mallinfo(arena+hblkhd)
        243592 MiB available memory on the node where the printing process lives
------------------
     ethr =  1.00E-13,  avg # of iterations =  1.0

     total cpu time spent up to now is      163.7 secs

     total energy              =    -184.83183128 Ry
     estimated scf accuracy    <          2.7E-14 Ry

     iteration # 29     ecut=    80.00 Ry     beta= 0.20
     Davidson diagonalization with overlap

---- Real-time Memory Report at c_bands before calling an iterative solver
            92 MiB given to the printing process from OS
            70 MiB allocation reported by mallinfo(arena+hblkhd)
        243594 MiB available memory on the node where the printing process lives
------------------
     ethr =  1.00E-13,  avg # of iterations =  1.0

     total cpu time spent up to now is      164.7 secs

     total energy              =    -184.83183128 Ry
     estimated scf accuracy    <          8.5E-15 Ry

     iteration # 30     ecut=    80.00 Ry     beta= 0.20
     Davidson diagonalization with overlap

---- Real-time Memory Report at c_bands before calling an iterative solver
            92 MiB given to the printing process from OS
            70 MiB allocation reported by mallinfo(arena+hblkhd)
        243594 MiB available memory on the node where the printing process lives
------------------
     ethr =  1.00E-13,  avg # of iterations =  1.0

     total cpu time spent up to now is      165.6 secs

     total energy              =    -184.83183128 Ry
     estimated scf accuracy    <          2.0E-13 Ry

     iteration # 31     ecut=    80.00 Ry     beta= 0.20
     Davidson diagonalization with overlap

---- Real-time Memory Report at c_bands before calling an iterative solver
            92 MiB given to the printing process from OS
            70 MiB allocation reported by mallinfo(arena+hblkhd)
        243594 MiB available memory on the node where the printing process lives
------------------
     ethr =  1.00E-13,  avg # of iterations =  1.0

     total cpu time spent up to now is      166.6 secs

     total energy              =    -184.83183128 Ry
     estimated scf accuracy    <          1.1E-13 Ry

     iteration # 32     ecut=    80.00 Ry     beta= 0.20
     Davidson diagonalization with overlap

---- Real-time Memory Report at c_bands before calling an iterative solver
            92 MiB given to the printing process from OS
            70 MiB allocation reported by mallinfo(arena+hblkhd)
        243594 MiB available memory on the node where the printing process lives
------------------
     ethr =  1.00E-13,  avg # of iterations =  1.0

     total cpu time spent up to now is      167.5 secs

     total energy              =    -184.83183128 Ry
     estimated scf accuracy    <          1.4E-13 Ry

     iteration # 33     ecut=    80.00 Ry     beta= 0.20
     Davidson diagonalization with overlap

---- Real-time Memory Report at c_bands before calling an iterative solver
            92 MiB given to the printing process from OS
            70 MiB allocation reported by mallinfo(arena+hblkhd)
        243594 MiB available memory on the node where the printing process lives
------------------
     ethr =  1.00E-13,  avg # of iterations =  1.0

     total cpu time spent up to now is      168.5 secs

     total energy              =    -184.83183128 Ry
     estimated scf accuracy    <          1.4E-13 Ry

     iteration # 34     ecut=    80.00 Ry     beta= 0.20
     Davidson diagonalization with overlap

---- Real-time Memory Report at c_bands before calling an iterative solver
            92 MiB given to the printing process from OS
            70 MiB allocation reported by mallinfo(arena+hblkhd)
        243594 MiB available memory on the node where the printing process lives
------------------
     ethr =  1.00E-13,  avg # of iterations =  1.0

     total cpu time spent up to now is      169.4 secs

     total energy              =    -184.83183128 Ry
     estimated scf accuracy    <          6.4E-14 Ry

     iteration # 35     ecut=    80.00 Ry     beta= 0.20
     Davidson diagonalization with overlap

---- Real-time Memory Report at c_bands before calling an iterative solver
            92 MiB given to the printing process from OS
            70 MiB allocation reported by mallinfo(arena+hblkhd)
        243594 MiB available memory on the node where the printing process lives
------------------
     ethr =  1.00E-13,  avg # of iterations =  1.0

     total cpu time spent up to now is      170.4 secs

     total energy              =    -184.83183128 Ry
     estimated scf accuracy    <          4.0E-14 Ry

     iteration # 36     ecut=    80.00 Ry     beta= 0.20
     Davidson diagonalization with overlap

---- Real-time Memory Report at c_bands before calling an iterative solver
            92 MiB given to the printing process from OS
            70 MiB allocation reported by mallinfo(arena+hblkhd)
        243594 MiB available memory on the node where the printing process lives
------------------
     ethr =  1.00E-13,  avg # of iterations =  1.0

     total cpu time spent up to now is      171.3 secs

     total energy              =    -184.83183128 Ry
     estimated scf accuracy    <          2.0E-14 Ry

     iteration # 37     ecut=    80.00 Ry     beta= 0.20
     Davidson diagonalization with overlap

---- Real-time Memory Report at c_bands before calling an iterative solver
            92 MiB given to the printing process from OS
            70 MiB allocation reported by mallinfo(arena+hblkhd)
        243596 MiB available memory on the node where the printing process lives
------------------
     ethr =  1.00E-13,  avg # of iterations =  1.0

     total cpu time spent up to now is      172.3 secs

     total energy              =    -184.83183128 Ry
     estimated scf accuracy    <          4.3E-15 Ry

     iteration # 38     ecut=    80.00 Ry     beta= 0.20
     Davidson diagonalization with overlap

---- Real-time Memory Report at c_bands before calling an iterative solver
            92 MiB given to the printing process from OS
            70 MiB allocation reported by mallinfo(arena+hblkhd)
        243596 MiB available memory on the node where the printing process lives
------------------
     ethr =  1.00E-13,  avg # of iterations =  1.0

     total cpu time spent up to now is      173.3 secs

     total energy              =    -184.83183128 Ry
     estimated scf accuracy    <          3.5E-15 Ry

     iteration # 39     ecut=    80.00 Ry     beta= 0.20
     Davidson diagonalization with overlap

---- Real-time Memory Report at c_bands before calling an iterative solver
            92 MiB given to the printing process from OS
            70 MiB allocation reported by mallinfo(arena+hblkhd)
        243596 MiB available memory on the node where the printing process lives
------------------
     ethr =  1.00E-13,  avg # of iterations =  1.0

     total cpu time spent up to now is      174.2 secs

     total energy              =    -184.83183128 Ry
     estimated scf accuracy    <          2.9E-15 Ry

     iteration # 40     ecut=    80.00 Ry     beta= 0.20
     Davidson diagonalization with overlap

---- Real-time Memory Report at c_bands before calling an iterative solver
            92 MiB given to the printing process from OS
            70 MiB allocation reported by mallinfo(arena+hblkhd)
        243596 MiB available memory on the node where the printing process lives
------------------
     ethr =  1.00E-13,  avg # of iterations =  1.0

     total cpu time spent up to now is      175.2 secs

     End of self-consistent calculation

          k = 0.0000 0.0000 0.0000 ( 14855 PWs)   bands (ev):

   -61.8981 -36.1033 -35.8400 -35.8400 -15.3952 -14.0324  -6.9427  -3.8008
    -3.8008  -3.0144  -2.6445  -2.6445  -1.2403

     occupation numbers 
     1.0000   1.0000   1.0000   1.0000   1.0000   1.0000   1.0000   1.0000
     1.0000   1.0000   1.0000   1.0000   1.0000

          k = 0.0000 0.0550 0.0000 ( 14883 PWs)   bands (ev):

   -61.8971 -36.1014 -35.8499 -35.8423 -15.3592 -14.0178  -6.9016  -3.8826
    -3.7631  -3.2324  -2.7034  -2.4776  -1.2528

     occupation numbers 
     1.0000   1.0000   1.0000   1.0000   1.0000   1.0000   1.0000   1.0000
     1.0000   1.0000   1.0000   1.0000   1.0000

          k = 0.0000 0.1100 0.0000 ( 14863 PWs)   bands (ev):

   -61.8942 -36.0958 -35.8783 -35.8487 -15.2532 -13.9746  -6.7840  -4.1061
    -3.6523  -3.5896  -2.8649  -2.2886  -1.3015

     occupation numbers 
     1.0000   1.0000   1.0000   1.0000   1.0000   1.0000   1.0000   1.0000
     1.0000   1.0000   1.0000   1.0000   1.0000

          k = 0.0000 0.1650 0.0000 ( 14855 PWs)   bands (ev):

   -61.8897 -36.0869 -35.9228 -35.8588 -15.0824 -13.9051  -6.6094  -4.4164
    -3.9719  -3.4761  -3.0934  -2.2207  -1.4153

     occupation numbers 
     1.0000   1.0000   1.0000   1.0000   1.0000   1.0000   1.0000   1.0000
     1.0000   1.0000   1.0000   1.0000   1.0000

          k = 0.0000 0.2199 0.0000 ( 14815 PWs)   bands (ev):

   -61.8839 -36.0756 -35.9789 -35.8716 -14.8558 -13.8131  -6.4211  -4.7408
    -4.3622  -3.3515  -3.2481  -2.2915  -1.6171

     occupation numbers 
     1.0000   1.0000   1.0000   1.0000   1.0000   1.0000   1.0000   1.0000
     1.0000   1.0000   1.0000   1.0000   1.0000

          k = 0.0000 0.2749 0.0000 ( 14799 PWs)   bands (ev):

   -61.8774 -36.0629 -36.0415 -35.8859 -14.5864 -13.7044  -6.3050  -4.9903
    -4.7524  -3.6099  -2.9877  -2.4560  -1.8788

     occupation numbers 
     1.0000   1.0000   1.0000   1.0000   1.0000   1.0000   1.0000   1.0000
     1.0000   1.0000   1.0000   1.0000   1.0000

          k = 0.0000 0.3299 0.0000 ( 14811 PWs)   bands (ev):

   -61.8708 -36.1049 -36.0499 -35.9006 -14.2915 -13.5867  -6.3598  -5.1308
    -5.0950  -3.8475  -2.7204  -2.6482  -2.1079

     occupation numbers 
     1.0000   1.0000   1.0000   1.0000   1.0000   1.0000   1.0000   1.0000
     1.0000   1.0000   1.0000   1.0000   1.0000

          k = 0.0000 0.3849 0.0000 ( 14770 PWs)   bands (ev):

   -61.8646 -36.1635 -36.0376 -35.9142 -13.9940 -13.4701  -6.5598  -5.4787
    -5.1234  -4.0503  -2.8209  -2.4748  -2.2009

     occupation numbers 
     1.0000   1.0000   1.0000   1.0000   1.0000   1.0000   1.0000   1.0000
     1.0000   1.0000   1.0000   1.0000   1.0000

          k = 0.0000 0.4399 0.0000 ( 14722 PWs)   bands (ev):

   -61.8593 -36.2124 -36.0274 -35.9257 -13.7230 -13.3662  -6.7960  -5.7715
    -5.1818  -4.2091  -2.9526  -2.2766  -2.1283

     occupation numbers 
     1.0000   1.0000   1.0000   1.0000   1.0000   1.0000   1.0000   1.0000
     1.0000   1.0000   1.0000   1.0000   1.0000

          k = 0.0000 0.4949 0.0000 ( 14716 PWs)   bands (ev):

   -61.8556 -36.2473 -36.0200 -35.9339 -13.5125 -13.2876  -6.9926  -5.9843
    -5.2677  -4.3179  -3.0384  -2.1418  -1.9697

     occupation numbers 
     1.0000   1.0000   1.0000   1.0000   1.0000   1.0000   1.0000   1.0000
     1.0000   1.0000   1.0000   1.0000   1.0000

          k = 0.0000 0.5499 0.0000 ( 14720 PWs)   bands (ev):

   -61.8536 -36.2656 -36.0161 -35.9382 -13.3962 -13.2451  -7.1037  -6.0964
    -5.3281  -4.3731  -3.0801  -2.0749  -1.8482

     occupation numbers 
     1.0000   1.0000   1.0000   1.0000   1.0000   1.0000   1.0000   1.0000
     1.0000   1.0000   1.0000   1.0000   1.0000

          k = 0.0476 0.0825 0.0000 ( 14875 PWs)   bands (ev):

   -61.8952 -36.0976 -35.8688 -35.8467 -15.2882 -13.9889  -6.8222  -4.0346
    -3.6894  -3.4854  -2.8295  -2.3172  -1.2834

     occupation numbers 
     1.0000   1.0000   1.0000   1.0000   1.0000   1.0000   1.0000   1.0000
     1.0000   1.0000   1.0000   1.0000   1.0000

          k = 0.0476 0.1375 0.0000 ( 14858 PWs)   bands (ev):

   -61.8915 -36.0904 -35.9048 -35.8555 -15.1498 -13.9325  -6.6750  -4.2992
    -3.8175  -3.5484  -3.0603  -2.1853  -1.3645

     occupation numbers 
     1.0000   1.0000   1.0000   1.0000   1.0000   1.0000   1.0000   1.0000
     1.0000   1.0000   1.0000   1.0000   1.0000

          k = 0.0476 0.1925 0.0000 ( 14822 PWs)   bands (ev):

   -61.8863 -36.0803 -35.9544 -35.8676 -14.9509 -13.8516  -6.4894  -4.6134
    -4.1769  -3.3525  -3.3394  -2.1714  -1.5235

     occupation numbers 
     1.0000   1.0000   1.0000   1.0000   1.0000   1.0000   1.0000   1.0000
     1.0000   1.0000   1.0000   1.0000   1.0000

          k = 0.0476 0.2474 0.0000 ( 14793 PWs)   bands (ev):

   -61.8802 -36.0683 -36.0130 -35.8819 -14.7026 -13.7509  -6.3281  -4.8971
    -4.5533  -3.6177  -3.1229  -2.2797  -1.7582

     occupation numbers 
     1.0000   1.0000   1.0000   1.0000   1.0000   1.0000   1.0000   1.0000
     1.0000   1.0000   1.0000   1.0000   1.0000

          k = 0.0476 0.3024 0.0000 ( 14812 PWs)   bands (ev):

   -61.8736 -36.0751 -36.0554 -35.8973 -14.4199 -13.6371  -6.2947  -5.0594
    -4.9382  -3.8625  -2.8929  -2.4615  -1.9974

     occupation numbers 
     1.0000   1.0000   1.0000   1.0000   1.0000   1.0000   1.0000   1.0000
     1.0000   1.0000   1.0000   1.0000   1.0000

          k = 0.0476 0.3574 0.0000 ( 14790 PWs)   bands (ev):

   -61.8672 -36.1353 -36.0428 -35.9123 -14.1226 -13.5191  -6.4347  -5.3116
    -5.0966  -4.0596  -2.7079  -2.6597  -2.1173

     occupation numbers 
     1.0000   1.0000   1.0000   1.0000   1.0000   1.0000   1.0000   1.0000
     1.0000   1.0000   1.0000   1.0000   1.0000

          k = 0.0476 0.4124 0.0000 ( 14759 PWs)   bands (ev):

   -61.8614 -36.1884 -36.0315 -35.9255 -13.8366 -13.4077  -6.6593  -5.6452
    -5.1288  -4.2077  -2.8352  -2.5748  -2.0586

     occupation numbers 
     1.0000   1.0000   1.0000   1.0000   1.0000   1.0000   1.0000   1.0000
     1.0000   1.0000   1.0000   1.0000   1.0000

          k = 0.0476 0.4674 0.0000 ( 14731 PWs)   bands (ev):

   -61.8569 -36.2297 -36.0227 -35.9359 -13.5935 -13.3152  -6.8757  -5.9096
    -5.2078  -4.3100  -2.9678  -2.4464  -1.9107

     occupation numbers 
     1.0000   1.0000   1.0000   1.0000   1.0000   1.0000   1.0000   1.0000
     1.0000   1.0000   1.0000   1.0000   1.0000

          k = 0.0476 0.5224 0.0000 ( 14718 PWs)   bands (ev):

   -61.8541 -36.2559 -36.0170 -35.9425 -13.4280 -13.2536  -7.0285  -6.0796
    -5.2896  -4.3700  -3.0490  -2.3456  -1.7690

     occupation numbers 
     1.0000   1.0000   1.0000   1.0000   1.0000   1.0000   1.0000   1.0000
     1.0000   1.0000   1.0000   1.0000   1.0000

          k = 0.0476 0.5774 0.0000 ( 14714 PWs)   bands (ev):

   -61.8531 -36.2649 -36.0151 -35.9448 -13.3689 -13.2319  -7.0837  -6.1382
    -5.3232  -4.3898  -3.0762  -2.3092  -1.7094

     occupation numbers 
     1.0000   1.0000   1.0000   1.0000   1.0000   1.0000   1.0000   1.0000
     1.0000   1.0000   1.0000   1.0000   1.0000

          k = 0.0952 0.1650 0.0000 ( 14827 PWs)   bands (ev):

   -61.8871 -36.0819 -35.9452 -35.8670 -14.9832 -13.8646  -6.5139  -4.5641
    -4.0852  -3.3928  -3.3904  -2.0923  -1.4914

     occupation numbers 
     1.0000   1.0000   1.0000   1.0000   1.0000   1.0000   1.0000   1.0000
     1.0000   1.0000   1.0000   1.0000   1.0000

          k = 0.0952 0.2199 0.0000 ( 14813 PWs)   bands (ev):

   -61.8816 -36.0711 -35.9959 -35.8821 -14.7623 -13.7747  -6.3443  -4.8325
    -4.3827  -3.7475  -3.2114  -2.0970  -1.6879

     occupation numbers 
     1.0000   1.0000   1.0000   1.0000   1.0000   1.0000   1.0000   1.0000
     1.0000   1.0000   1.0000   1.0000   1.0000

          k = 0.0952 0.2749 0.0000 ( 14793 PWs)   bands (ev):

   -61.8754 -36.0590 -36.0522 -35.8992 -14.4999 -13.6682  -6.2513  -5.0159
    -4.7349  -4.0361  -3.0491  -2.2132  -1.9052

     occupation numbers 
     1.0000   1.0000   1.0000   1.0000   1.0000   1.0000   1.0000   1.0000
     1.0000   1.0000   1.0000   1.0000   1.0000

          k = 0.0952 0.3299 0.0000 ( 14799 PWs)   bands (ev):

   -61.8691 -36.1093 -36.0465 -35.9167 -14.2132 -13.5526  -6.3173  -5.1302
    -5.0602  -4.2223  -2.9633  -2.4032  -2.0317

     occupation numbers 
     1.0000   1.0000   1.0000   1.0000   1.0000   1.0000   1.0000   1.0000
     1.0000   1.0000   1.0000   1.0000   1.0000

          k = 0.0952 0.3849 0.0000 ( 14771 PWs)   bands (ev):

   -61.8631 -36.1621 -36.0348 -35.9330 -13.9246 -13.4378  -6.5008  -5.5151
    -5.0568  -4.3288  -2.9392  -2.6175  -2.0025

     occupation numbers 
     1.0000   1.0000   1.0000   1.0000   1.0000   1.0000   1.0000   1.0000
     1.0000   1.0000   1.0000   1.0000   1.0000

          k = 0.0952 0.4399 0.0000 ( 14747 PWs)   bands (ev):

   -61.8581 -36.2061 -36.0250 -35.9467 -13.6626 -13.3352  -6.7070  -5.8423
    -5.1112  -4.3813  -2.8862  -2.8158  -1.8763

     occupation numbers 
     1.0000   1.0000   1.0000   1.0000   1.0000   1.0000   1.0000   1.0000
     1.0000   1.0000   1.0000   1.0000   1.0000

          k = 0.0952 0.4949 0.0000 ( 14735 PWs)   bands (ev):

   -61.8545 -36.2376 -36.0179 -35.9566 -13.4600 -13.2574  -6.8754  -6.0789
    -5.2071  -4.4003  -2.9680  -2.8068  -1.7232

     occupation numbers 
     1.0000   1.0000   1.0000   1.0000   1.0000   1.0000   1.0000   1.0000
     1.0000   1.0000   1.0000   1.0000   1.0000

          k = 0.0952 0.5499 0.0000 ( 14714 PWs)   bands (ev):

   -61.8526 -36.2541 -36.0142 -35.9617 -13.3484 -13.2152  -6.9696  -6.2030
    -5.2763  -4.4038  -3.0511  -2.7547  -1.6135

     occupation numbers 
     1.0000   1.0000   1.0000   1.0000   1.0000   1.0000   1.0000   1.0000
     1.0000   1.0000   1.0000   1.0000   1.0000

          k = 0.1429 0.2474 0.0000 ( 14801 PWs)   bands (ev):

   -61.8760 -36.0602 -36.0433 -35.9009 -14.5271 -13.6786  -6.2361  -4.9963
    -4.6131  -4.1598  -3.1094  -2.1021  -1.8714

     occupation numbers 
     1.0000   1.0000   1.0000   1.0000   1.0000   1.0000   1.0000   1.0000
     1.0000   1.0000   1.0000   1.0000   1.0000

          k = 0.1429 0.3024 0.0000 ( 14798 PWs)   bands (ev):

   -61.8700 -36.0928 -36.0484 -35.9219 -14.2599 -13.5696  -6.2447  -5.0334
    -4.9674  -4.4021  -3.1182  -2.2153  -1.9879

     occupation numbers 
     1.0000   1.0000   1.0000   1.0000   1.0000   1.0000   1.0000   1.0000
     1.0000   1.0000   1.0000   1.0000   1.0000

          k = 0.1429 0.3574 0.0000 ( 14791 PWs)   bands (ev):

   -61.8642 -36.1403 -36.0369 -35.9430 -13.9802 -13.4560  -6.3697  -5.3921
    -4.9863  -4.4856  -3.2278  -2.4089  -1.9820

     occupation numbers 
     1.0000   1.0000   1.0000   1.0000   1.0000   1.0000   1.0000   1.0000
     1.0000   1.0000   1.0000   1.0000   1.0000

          k = 0.1429 0.4124 0.0000 ( 14771 PWs)   bands (ev):

   -61.8589 -36.1820 -36.0267 -35.9619 -13.7128 -13.3481  -6.5350  -5.7799
    -4.9871  -4.4925  -3.3130  -2.6362  -1.8847

     occupation numbers 
     1.0000   1.0000   1.0000   1.0000   1.0000   1.0000   1.0000   1.0000
     1.0000   1.0000   1.0000   1.0000   1.0000

          k = 0.1429 0.4674 0.0000 ( 14749 PWs)   bands (ev):

   -61.8548 -36.2144 -36.0186 -35.9768 -13.4874 -13.2581  -6.6827  -6.0836
    -5.0789  -4.4587  -3.3151  -2.8508  -1.7353

     occupation numbers 
     1.0000   1.0000   1.0000   1.0000   1.0000   1.0000   1.0000   1.0000
     1.0000   1.0000   1.0000   1.0000   1.0000

          k = 0.1429 0.5224 0.0000 ( 14744 PWs)   bands (ev):

   -61.8522 -36.2350 -36.0134 -35.9864 -13.3351 -13.1979  -6.7824  -6.2765
    -5.1875  -4.4147  -3.2849  -3.0086  -1.5863

     occupation numbers 
     1.0000   1.0000   1.0000   1.0000   1.0000   1.0000   1.0000   1.0000
     1.0000   1.0000   1.0000   1.0000   1.0000

          k = 0.1429 0.5774 0.0000 ( 14722 PWs)   bands (ev):

   -61.8513 -36.2420 -36.0117 -35.9896 -13.2810 -13.1767  -6.8175  -6.3426
    -5.2330  -4.3943  -3.2706  -3.0677  -1.5211

     occupation numbers 
     1.0000   1.0000   1.0000   1.0000   1.0000   1.0000   1.0000   1.0000
     1.0000   1.0000   1.0000   1.0000   1.0000

          k = 0.1905 0.3299 0.0000 ( 14781 PWs)   bands (ev):

   -61.8645 -36.1315 -36.0376 -35.9477 -13.9992 -13.4620  -6.3180  -5.3334
    -4.9545  -4.5618  -3.3411  -2.3230  -1.9778

     occupation numbers 
     1.0000   1.0000   1.0000   1.0000   1.0000   1.0000   1.0000   1.0000
     1.0000   1.0000   1.0000   1.0000   1.0000

          k = 0.1905 0.3849 0.0000 ( 14753 PWs)   bands (ev):

   -61.8594 -36.1656 -36.0275 -35.9736 -13.7392 -13.3543  -6.4233  -5.7378
    -4.8767  -4.5741  -3.6030  -2.5149  -1.9001

     occupation numbers 
     1.0000   1.0000   1.0000   1.0000   1.0000   1.0000   1.0000   1.0000
     1.0000   1.0000   1.0000   1.0000   1.0000

          k = 0.1905 0.4399 0.0000 ( 14749 PWs)   bands (ev):

   -61.8551 -36.1930 -36.0190 -35.9964 -13.5059 -13.2574  -6.5149  -6.0871
    -4.9114  -4.5145  -3.7704  -2.7447  -1.7638

     occupation numbers 
     1.0000   1.0000   1.0000   1.0000   1.0000   1.0000   1.0000   1.0000
     1.0000   1.0000   1.0000   1.0000   1.0000

          k = 0.1905 0.4949 0.0000 ( 14736 PWs)   bands (ev):

   -61.8519 -36.2121 -36.0134 -36.0129 -13.3277 -13.1834  -6.5722  -6.3394
    -5.0490  -4.4255  -3.8184  -2.9585  -1.5918

     occupation numbers 
     1.0000   1.0000   1.0000   1.0000   1.0000   1.0000   1.0000   1.0000
     1.0000   1.0000   1.0000   1.0000   1.0000

          k = 0.1905 0.5499 0.0000 ( 14754 PWs)   bands (ev):

   -61.8503 -36.2218 -36.0225 -36.0097 -13.2307 -13.1431  -6.5960  -6.4714
    -5.1626  -4.3557  -3.8205  -3.0942  -1.4608

     occupation numbers 
     1.0000   1.0000   1.0000   1.0000   1.0000   1.0000   1.0000   1.0000
     1.0000   1.0000   1.0000   1.0000   1.0000

          k = 0.2381 0.4124 0.0000 ( 14762 PWs)   bands (ev):

   -61.8551 -36.1837 -36.0192 -36.0051 -13.5124 -13.2570  -6.4469  -6.0883
    -4.8013  -4.5371  -3.9893  -2.7017  -1.7772

     occupation numbers 
     1.0000   1.0000   1.0000   1.0000   1.0000   1.0000   1.0000   1.0000
     1.0000   1.0000   1.0000   1.0000   1.0000

          k = 0.2381 0.4674 0.0000 ( 14739 PWs)   bands (ev):

   -61.8518 -36.1945 -36.0333 -36.0126 -13.3246 -13.1752  -6.4249  -6.3754
    -4.8641  -4.4332  -4.2463  -2.9232  -1.6020

     occupation numbers 
     1.0000   1.0000   1.0000   1.0000   1.0000   1.0000   1.0000   1.0000
     1.0000   1.0000   1.0000   1.0000   1.0000

          k = 0.2381 0.5224 0.0000 ( 14764 PWs)   bands (ev):

   -61.8497 -36.1993 -36.0533 -36.0084 -13.1999 -13.1201  -6.5614  -6.3705
    -5.0542  -4.3185  -4.3165  -3.1168  -1.4213

     occupation numbers 
     1.0000   1.0000   1.0000   1.0000   1.0000   1.0000   1.0000   1.0000
     1.0000   1.0000   1.0000   1.0000   1.0000

          k = 0.2381 0.5774 0.0000 ( 14776 PWs)   bands (ev):

   -61.8489 -36.2004 -36.0606 -36.0070 -13.1561 -13.1007  -6.6256  -6.3380
    -5.1534  -4.3269  -4.2610  -3.1991  -1.3392

     occupation numbers 
     1.0000   1.0000   1.0000   1.0000   1.0000   1.0000   1.0000   1.0000
     1.0000   1.0000   1.0000   1.0000   1.0000

          k = 0.2857 0.4949 0.0000 ( 14730 PWs)   bands (ev):

   -61.8494 -36.1878 -36.0676 -36.0080 -13.1896 -13.1119  -6.5935  -6.2665
    -4.9430  -4.5898  -4.3004  -3.1255  -1.4067

     occupation numbers 
     1.0000   1.0000   1.0000   1.0000   1.0000   1.0000   1.0000   1.0000
     1.0000   1.0000   1.0000   1.0000   1.0000

          k = 0.2857 0.5499 0.0000 ( 14738 PWs)   bands (ev):

   -61.8482 -36.1785 -36.0914 -36.0056 -13.1174 -13.0774  -6.7101  -6.0960
    -5.1867  -4.6615  -4.1860  -3.2768  -1.2549

     occupation numbers 
     1.0000   1.0000   1.0000   1.0000   1.0000   1.0000   1.0000   1.0000
     1.0000   1.0000   1.0000   1.0000   1.0000

          k = 0.3333 0.5774 0.0000 ( 14760 PWs)   bands (ev):

   -61.8477 -36.1627 -36.1131 -36.0046 -13.0889 -13.0622  -6.7622  -5.8965
    -5.3724  -4.7455  -4.1205  -3.3523  -1.1793

     occupation numbers 
     1.0000   1.0000   1.0000   1.0000   1.0000   1.0000   1.0000   1.0000
     1.0000   1.0000   1.0000   1.0000   1.0000

     highest occupied level (ev):    -1.1793

!    total energy              =    -184.83183128 Ry
     estimated scf accuracy    <          1.9E-16 Ry

     convergence has been achieved in  40 iterations

     Forces acting on atoms (cartesian axes, Ry/au):

     atom    1 type  1   force =     0.00000000    0.00000000    0.00000000
     atom    2 type  2   force =     0.00000000   -0.00000000   -0.00018908
     atom    3 type  2   force =     0.00000000   -0.00000000    0.00018908
     The non-local contrib.  to forces
     atom    1 type  1   force =     0.00000000    0.00000000    0.00000000
     atom    2 type  2   force =    -0.00000000   -0.00000000   -0.25599510
     atom    3 type  2   force =     0.00000000    0.00000000    0.25599510
     The ionic contribution  to forces
     atom    1 type  1   force =     0.00000001    0.00000097    0.00000000
     atom    2 type  2   force =    -0.00000000   -0.00000048   37.43215569
     atom    3 type  2   force =    -0.00000000   -0.00000048  -37.43215569
     The local contribution  to forces
     atom    1 type  1   force =     0.00000000    0.00002380    0.00000000
     atom    2 type  2   force =    -0.00000001    0.00000001  -37.18054130
     atom    3 type  2   force =    -0.00000001    0.00000001   37.18054130
     The core correction contribution to forces
     atom    1 type  1   force =    -0.00000000   -0.00000040   -0.00000000
     atom    2 type  2   force =     0.00000000   -0.00000000    0.00419161
     atom    3 type  2   force =     0.00000000   -0.00000000   -0.00419161
     The Hubbard contrib.    to forces
     atom    1 type  1   force =     0.00000000    0.00000000    0.00000000
     atom    2 type  2   force =     0.00000000    0.00000000    0.00000000
     atom    3 type  2   force =     0.00000000    0.00000000    0.00000000
     The SCF correction term to forces
     atom    1 type  1   force =     0.00000000   -0.00000000    0.00000000
     atom    2 type  2   force =    -0.00000000    0.00000000    0.00000003
     atom    3 type  2   force =    -0.00000000    0.00000000   -0.00000003

     Total force =     0.000267     Total SCF correction =     0.000000

     Entering Dynamics:    iteration =     3

     <vel(dt)|acc(dt)> =   1.00000000

ATOMIC_POSITIONS (crystal)
Mo               0.3333333000        0.6666666000        0.5000000000    0   0   0
S                0.6666666670        0.3333333330        0.5735763217    0   0   1
S                0.6666666670        0.3333333330        0.4264236783    0   0   1



     Writing config-only to output data dir ./tmp/MoS2.save/ :
     XML data file
     NEW-OLD atomic charge density approx. for the potential

     total cpu time spent up to now is      175.4 secs

     per-process dynamical memory:    73.2 Mb

     Self-consistent Calculation

     iteration #  1     ecut=    80.00 Ry     beta= 0.20
     Davidson diagonalization with overlap

---- Real-time Memory Report at c_bands before calling an iterative solver
            93 MiB given to the printing process from OS
            71 MiB allocation reported by mallinfo(arena+hblkhd)
        243596 MiB available memory on the node where the printing process lives
------------------
     ethr =  1.00E-06,  avg # of iterations =  2.0

     Threshold (ethr) on eigenvalues was too large:
     Diagonalizing with lowered threshold

     Davidson diagonalization with overlap

---- Real-time Memory Report at c_bands before calling an iterative solver
            93 MiB given to the printing process from OS
            71 MiB allocation reported by mallinfo(arena+hblkhd)
        243592 MiB available memory on the node where the printing process lives
------------------
     ethr =  3.87E-09,  avg # of iterations =  4.8

     total cpu time spent up to now is      177.9 secs

     total energy              =    -184.83183119 Ry
     estimated scf accuracy    <       0.00000005 Ry

     iteration #  2     ecut=    80.00 Ry     beta= 0.20
     Davidson diagonalization with overlap

---- Real-time Memory Report at c_bands before calling an iterative solver
            93 MiB given to the printing process from OS
            71 MiB allocation reported by mallinfo(arena+hblkhd)
        243593 MiB available memory on the node where the printing process lives
------------------
     ethr =  1.99E-10,  avg # of iterations =  5.2

     total cpu time spent up to now is      179.5 secs

     total energy              =    -184.83183122 Ry
     estimated scf accuracy    <       0.00000007 Ry

     iteration #  3     ecut=    80.00 Ry     beta= 0.20
     Davidson diagonalization with overlap

---- Real-time Memory Report at c_bands before calling an iterative solver
            93 MiB given to the printing process from OS
            71 MiB allocation reported by mallinfo(arena+hblkhd)
        243593 MiB available memory on the node where the printing process lives
------------------
     ethr =  1.99E-10,  avg # of iterations =  1.0

     negative rho (up, down):  1.292E-08 0.000E+00

     total cpu time spent up to now is      180.4 secs

     total energy              =    -184.83183118 Ry
     estimated scf accuracy    <       0.00000006 Ry

     iteration #  4     ecut=    80.00 Ry     beta= 0.20
     Davidson diagonalization with overlap

---- Real-time Memory Report at c_bands before calling an iterative solver
            93 MiB given to the printing process from OS
            71 MiB allocation reported by mallinfo(arena+hblkhd)
        243593 MiB available memory on the node where the printing process lives
------------------
     ethr =  1.99E-10,  avg # of iterations =  5.4

     total cpu time spent up to now is      182.1 secs

     total energy              =    -184.83183124 Ry
     estimated scf accuracy    <       0.00000027 Ry

     iteration #  5     ecut=    80.00 Ry     beta= 0.20
     Davidson diagonalization with overlap

---- Real-time Memory Report at c_bands before calling an iterative solver
            93 MiB given to the printing process from OS
            71 MiB allocation reported by mallinfo(arena+hblkhd)
        243593 MiB available memory on the node where the printing process lives
------------------
     ethr =  1.99E-10,  avg # of iterations =  1.0

     total cpu time spent up to now is      183.1 secs

     total energy              =    -184.83183119 Ry
     estimated scf accuracy    <       0.00000023 Ry

     iteration #  6     ecut=    80.00 Ry     beta= 0.20
     Davidson diagonalization with overlap

---- Real-time Memory Report at c_bands before calling an iterative solver
            93 MiB given to the printing process from OS
            71 MiB allocation reported by mallinfo(arena+hblkhd)
        243593 MiB available memory on the node where the printing process lives
------------------
     ethr =  1.99E-10,  avg # of iterations =  3.8

     total cpu time spent up to now is      184.4 secs

     total energy              =    -184.83183120 Ry
     estimated scf accuracy    <       0.00000002 Ry

     iteration #  7     ecut=    80.00 Ry     beta= 0.20
     Davidson diagonalization with overlap

---- Real-time Memory Report at c_bands before calling an iterative solver
            93 MiB given to the printing process from OS
            71 MiB allocation reported by mallinfo(arena+hblkhd)
        243595 MiB available memory on the node where the printing process lives
------------------
     ethr =  9.55E-11,  avg # of iterations =  5.7

     total cpu time spent up to now is      186.1 secs

     total energy              =    -184.83183121 Ry
     estimated scf accuracy    <       0.00000006 Ry

     iteration #  8     ecut=    80.00 Ry     beta= 0.20
     Davidson diagonalization with overlap

---- Real-time Memory Report at c_bands before calling an iterative solver
            93 MiB given to the printing process from OS
            71 MiB allocation reported by mallinfo(arena+hblkhd)
        243595 MiB available memory on the node where the printing process lives
------------------
     ethr =  9.55E-11,  avg # of iterations =  1.4

     total cpu time spent up to now is      187.0 secs

     total energy              =    -184.83183120 Ry
     estimated scf accuracy    <       0.00000003 Ry

     iteration #  9     ecut=    80.00 Ry     beta= 0.20
     Davidson diagonalization with overlap

---- Real-time Memory Report at c_bands before calling an iterative solver
            93 MiB given to the printing process from OS
            71 MiB allocation reported by mallinfo(arena+hblkhd)
        243595 MiB available memory on the node where the printing process lives
------------------
     ethr =  9.55E-11,  avg # of iterations =  4.1

     total cpu time spent up to now is      188.4 secs

     total energy              =    -184.83183121 Ry
     estimated scf accuracy    <          1.1E-09 Ry

     iteration # 10     ecut=    80.00 Ry     beta= 0.20
     Davidson diagonalization with overlap

---- Real-time Memory Report at c_bands before calling an iterative solver
            93 MiB given to the printing process from OS
            71 MiB allocation reported by mallinfo(arena+hblkhd)
        243595 MiB available memory on the node where the printing process lives
------------------
     ethr =  4.13E-12,  avg # of iterations =  5.3

     total cpu time spent up to now is      190.0 secs

     total energy              =    -184.83183121 Ry
     estimated scf accuracy    <          7.1E-09 Ry

     iteration # 11     ecut=    80.00 Ry     beta= 0.20
     Davidson diagonalization with overlap

---- Real-time Memory Report at c_bands before calling an iterative solver
            93 MiB given to the printing process from OS
            71 MiB allocation reported by mallinfo(arena+hblkhd)
        243595 MiB available memory on the node where the printing process lives
------------------
     ethr =  4.13E-12,  avg # of iterations =  4.6

     total cpu time spent up to now is      191.5 secs

     total energy              =    -184.83183121 Ry
     estimated scf accuracy    <          1.6E-10 Ry

     iteration # 12     ecut=    80.00 Ry     beta= 0.20
     Davidson diagonalization with overlap

---- Real-time Memory Report at c_bands before calling an iterative solver
            93 MiB given to the printing process from OS
            71 MiB allocation reported by mallinfo(arena+hblkhd)
        243596 MiB available memory on the node where the printing process lives
------------------
     ethr =  6.10E-13,  avg # of iterations =  4.1

     total cpu time spent up to now is      192.8 secs

     total energy              =    -184.83183121 Ry
     estimated scf accuracy    <          2.9E-11 Ry

     iteration # 13     ecut=    80.00 Ry     beta= 0.20
     Davidson diagonalization with overlap

---- Real-time Memory Report at c_bands before calling an iterative solver
            93 MiB given to the printing process from OS
            71 MiB allocation reported by mallinfo(arena+hblkhd)
        243569 MiB available memory on the node where the printing process lives
------------------
     ethr =  1.13E-13,  avg # of iterations =  3.0

     total cpu time spent up to now is      193.9 secs

     total energy              =    -184.83183121 Ry
     estimated scf accuracy    <          1.7E-11 Ry

     iteration # 14     ecut=    80.00 Ry     beta= 0.20
     Davidson diagonalization with overlap

---- Real-time Memory Report at c_bands before calling an iterative solver
            93 MiB given to the printing process from OS
            71 MiB allocation reported by mallinfo(arena+hblkhd)
        243592 MiB available memory on the node where the printing process lives
------------------
     ethr =  1.00E-13,  avg # of iterations =  2.4

     total cpu time spent up to now is      195.0 secs

     total energy              =    -184.83183121 Ry
     estimated scf accuracy    <          3.6E-12 Ry

     iteration # 15     ecut=    80.00 Ry     beta= 0.20
     Davidson diagonalization with overlap

---- Real-time Memory Report at c_bands before calling an iterative solver
            93 MiB given to the printing process from OS
            71 MiB allocation reported by mallinfo(arena+hblkhd)
        243597 MiB available memory on the node where the printing process lives
------------------
     ethr =  1.00E-13,  avg # of iterations =  1.0

     total cpu time spent up to now is      195.9 secs

     total energy              =    -184.83183121 Ry
     estimated scf accuracy    <          1.1E-12 Ry

     iteration # 16     ecut=    80.00 Ry     beta= 0.20
     Davidson diagonalization with overlap

---- Real-time Memory Report at c_bands before calling an iterative solver
            93 MiB given to the printing process from OS
            71 MiB allocation reported by mallinfo(arena+hblkhd)
        243597 MiB available memory on the node where the printing process lives
------------------
     ethr =  1.00E-13,  avg # of iterations =  1.0

     total cpu time spent up to now is      196.9 secs

     total energy              =    -184.83183121 Ry
     estimated scf accuracy    <          2.4E-13 Ry

     iteration # 17     ecut=    80.00 Ry     beta= 0.20
     Davidson diagonalization with overlap

---- Real-time Memory Report at c_bands before calling an iterative solver
            93 MiB given to the printing process from OS
            71 MiB allocation reported by mallinfo(arena+hblkhd)
        243597 MiB available memory on the node where the printing process lives
------------------
     ethr =  1.00E-13,  avg # of iterations =  1.5

     total cpu time spent up to now is      197.9 secs

     total energy              =    -184.83183121 Ry
     estimated scf accuracy    <          1.2E-12 Ry

     iteration # 18     ecut=    80.00 Ry     beta= 0.20
     Davidson diagonalization with overlap

---- Real-time Memory Report at c_bands before calling an iterative solver
            93 MiB given to the printing process from OS
            71 MiB allocation reported by mallinfo(arena+hblkhd)
        243597 MiB available memory on the node where the printing process lives
------------------
     ethr =  1.00E-13,  avg # of iterations =  1.0

     total cpu time spent up to now is      198.8 secs

     total energy              =    -184.83183121 Ry
     estimated scf accuracy    <          1.2E-12 Ry

     iteration # 19     ecut=    80.00 Ry     beta= 0.20
     Davidson diagonalization with overlap

---- Real-time Memory Report at c_bands before calling an iterative solver
            93 MiB given to the printing process from OS
            71 MiB allocation reported by mallinfo(arena+hblkhd)
        243597 MiB available memory on the node where the printing process lives
------------------
     ethr =  1.00E-13,  avg # of iterations =  1.0

     total cpu time spent up to now is      199.8 secs

     total energy              =    -184.83183121 Ry
     estimated scf accuracy    <          3.2E-13 Ry

     iteration # 20     ecut=    80.00 Ry     beta= 0.20
     Davidson diagonalization with overlap

---- Real-time Memory Report at c_bands before calling an iterative solver
            93 MiB given to the printing process from OS
            71 MiB allocation reported by mallinfo(arena+hblkhd)
        243597 MiB available memory on the node where the printing process lives
------------------
     ethr =  1.00E-13,  avg # of iterations =  1.0

     total cpu time spent up to now is      200.7 secs

     total energy              =    -184.83183121 Ry
     estimated scf accuracy    <          3.6E-13 Ry

     iteration # 21     ecut=    80.00 Ry     beta= 0.20
     Davidson diagonalization with overlap

---- Real-time Memory Report at c_bands before calling an iterative solver
            93 MiB given to the printing process from OS
            71 MiB allocation reported by mallinfo(arena+hblkhd)
        243597 MiB available memory on the node where the printing process lives
------------------
     ethr =  1.00E-13,  avg # of iterations =  1.0

     total cpu time spent up to now is      201.7 secs

     total energy              =    -184.83183121 Ry
     estimated scf accuracy    <          2.2E-13 Ry

     iteration # 22     ecut=    80.00 Ry     beta= 0.20
     Davidson diagonalization with overlap

---- Real-time Memory Report at c_bands before calling an iterative solver
            93 MiB given to the printing process from OS
            71 MiB allocation reported by mallinfo(arena+hblkhd)
        243597 MiB available memory on the node where the printing process lives
------------------
     ethr =  1.00E-13,  avg # of iterations =  1.0

     total cpu time spent up to now is      202.6 secs

     total energy              =    -184.83183121 Ry
     estimated scf accuracy    <          3.1E-13 Ry

     iteration # 23     ecut=    80.00 Ry     beta= 0.20
     Davidson diagonalization with overlap

---- Real-time Memory Report at c_bands before calling an iterative solver
            93 MiB given to the printing process from OS
            71 MiB allocation reported by mallinfo(arena+hblkhd)
        243597 MiB available memory on the node where the printing process lives
------------------
     ethr =  1.00E-13,  avg # of iterations =  1.0

     total cpu time spent up to now is      203.6 secs

     total energy              =    -184.83183121 Ry
     estimated scf accuracy    <          1.9E-14 Ry

     iteration # 24     ecut=    80.00 Ry     beta= 0.20
     Davidson diagonalization with overlap

---- Real-time Memory Report at c_bands before calling an iterative solver
            93 MiB given to the printing process from OS
            71 MiB allocation reported by mallinfo(arena+hblkhd)
        243597 MiB available memory on the node where the printing process lives
------------------
     ethr =  1.00E-13,  avg # of iterations =  1.0

     total cpu time spent up to now is      204.5 secs

     total energy              =    -184.83183121 Ry
     estimated scf accuracy    <          1.5E-14 Ry

     iteration # 25     ecut=    80.00 Ry     beta= 0.20
     Davidson diagonalization with overlap

---- Real-time Memory Report at c_bands before calling an iterative solver
            93 MiB given to the printing process from OS
            71 MiB allocation reported by mallinfo(arena+hblkhd)
        243597 MiB available memory on the node where the printing process lives
------------------
     ethr =  1.00E-13,  avg # of iterations =  1.0

     total cpu time spent up to now is      205.5 secs

     total energy              =    -184.83183121 Ry
     estimated scf accuracy    <          3.8E-14 Ry

     iteration # 26     ecut=    80.00 Ry     beta= 0.20
     Davidson diagonalization with overlap

---- Real-time Memory Report at c_bands before calling an iterative solver
            93 MiB given to the printing process from OS
            71 MiB allocation reported by mallinfo(arena+hblkhd)
        243597 MiB available memory on the node where the printing process lives
------------------
     ethr =  1.00E-13,  avg # of iterations =  1.0

     total cpu time spent up to now is      206.5 secs

     total energy              =    -184.83183121 Ry
     estimated scf accuracy    <          1.5E-14 Ry

     iteration # 27     ecut=    80.00 Ry     beta= 0.20
     Davidson diagonalization with overlap

---- Real-time Memory Report at c_bands before calling an iterative solver
            93 MiB given to the printing process from OS
            71 MiB allocation reported by mallinfo(arena+hblkhd)
        243597 MiB available memory on the node where the printing process lives
------------------
     ethr =  1.00E-13,  avg # of iterations =  1.0

     total cpu time spent up to now is      207.4 secs

     total energy              =    -184.83183121 Ry
     estimated scf accuracy    <          5.0E-14 Ry

     iteration # 28     ecut=    80.00 Ry     beta= 0.20
     Davidson diagonalization with overlap

---- Real-time Memory Report at c_bands before calling an iterative solver
            93 MiB given to the printing process from OS
            71 MiB allocation reported by mallinfo(arena+hblkhd)
        243596 MiB available memory on the node where the printing process lives
------------------
     ethr =  1.00E-13,  avg # of iterations =  1.0

     total cpu time spent up to now is      208.4 secs

     total energy              =    -184.83183121 Ry
     estimated scf accuracy    <          7.2E-14 Ry

     iteration # 29     ecut=    80.00 Ry     beta= 0.20
     Davidson diagonalization with overlap

---- Real-time Memory Report at c_bands before calling an iterative solver
            93 MiB given to the printing process from OS
            71 MiB allocation reported by mallinfo(arena+hblkhd)
        243596 MiB available memory on the node where the printing process lives
------------------
     ethr =  1.00E-13,  avg # of iterations =  1.0

     total cpu time spent up to now is      209.3 secs

     total energy              =    -184.83183121 Ry
     estimated scf accuracy    <          4.9E-14 Ry

     iteration # 30     ecut=    80.00 Ry     beta= 0.20
     Davidson diagonalization with overlap

---- Real-time Memory Report at c_bands before calling an iterative solver
            93 MiB given to the printing process from OS
            71 MiB allocation reported by mallinfo(arena+hblkhd)
        243596 MiB available memory on the node where the printing process lives
------------------
     ethr =  1.00E-13,  avg # of iterations =  1.0

     total cpu time spent up to now is      210.3 secs

     total energy              =    -184.83183121 Ry
     estimated scf accuracy    <          3.6E-14 Ry

     iteration # 31     ecut=    80.00 Ry     beta= 0.20
     Davidson diagonalization with overlap

---- Real-time Memory Report at c_bands before calling an iterative solver
            93 MiB given to the printing process from OS
            71 MiB allocation reported by mallinfo(arena+hblkhd)
        243593 MiB available memory on the node where the printing process lives
------------------
     ethr =  1.00E-13,  avg # of iterations =  1.0

     total cpu time spent up to now is      211.2 secs

     total energy              =    -184.83183121 Ry
     estimated scf accuracy    <          2.8E-15 Ry

     iteration # 32     ecut=    80.00 Ry     beta= 0.20
     Davidson diagonalization with overlap

---- Real-time Memory Report at c_bands before calling an iterative solver
            93 MiB given to the printing process from OS
            71 MiB allocation reported by mallinfo(arena+hblkhd)
        243594 MiB available memory on the node where the printing process lives
------------------
     ethr =  1.00E-13,  avg # of iterations =  1.0

     total cpu time spent up to now is      212.2 secs

     total energy              =    -184.83183121 Ry
     estimated scf accuracy    <          3.1E-15 Ry

     iteration # 33     ecut=    80.00 Ry     beta= 0.20
     Davidson diagonalization with overlap

---- Real-time Memory Report at c_bands before calling an iterative solver
            93 MiB given to the printing process from OS
            71 MiB allocation reported by mallinfo(arena+hblkhd)
        243595 MiB available memory on the node where the printing process lives
------------------
     ethr =  1.00E-13,  avg # of iterations =  1.0

     total cpu time spent up to now is      213.1 secs

     total energy              =    -184.83183121 Ry
     estimated scf accuracy    <          1.1E-14 Ry

     iteration # 34     ecut=    80.00 Ry     beta= 0.20
     Davidson diagonalization with overlap

---- Real-time Memory Report at c_bands before calling an iterative solver
            93 MiB given to the printing process from OS
            71 MiB allocation reported by mallinfo(arena+hblkhd)
        243595 MiB available memory on the node where the printing process lives
------------------
     ethr =  1.00E-13,  avg # of iterations =  1.0

     total cpu time spent up to now is      214.1 secs

     total energy              =    -184.83183121 Ry
     estimated scf accuracy    <          9.1E-15 Ry

     iteration # 35     ecut=    80.00 Ry     beta= 0.20
     Davidson diagonalization with overlap

---- Real-time Memory Report at c_bands before calling an iterative solver
            93 MiB given to the printing process from OS
            71 MiB allocation reported by mallinfo(arena+hblkhd)
        243595 MiB available memory on the node where the printing process lives
------------------
     ethr =  1.00E-13,  avg # of iterations =  1.0

     total cpu time spent up to now is      215.0 secs

     total energy              =    -184.83183121 Ry
     estimated scf accuracy    <          3.1E-15 Ry

     iteration # 36     ecut=    80.00 Ry     beta= 0.20
     Davidson diagonalization with overlap

---- Real-time Memory Report at c_bands before calling an iterative solver
            93 MiB given to the printing process from OS
            71 MiB allocation reported by mallinfo(arena+hblkhd)
        243598 MiB available memory on the node where the printing process lives
------------------
     ethr =  1.00E-13,  avg # of iterations =  1.0

     total cpu time spent up to now is      216.0 secs

     End of self-consistent calculation

          k = 0.0000 0.0000 0.0000 ( 14855 PWs)   bands (ev):

   -61.8982 -36.1037 -35.8405 -35.8405 -15.3974 -14.0326  -6.9448  -3.8047
    -3.8047  -3.0132  -2.6475  -2.6475  -1.2386

     occupation numbers 
     1.0000   1.0000   1.0000   1.0000   1.0000   1.0000   1.0000   1.0000
     1.0000   1.0000   1.0000   1.0000   1.0000

          k = 0.0000 0.0550 0.0000 ( 14883 PWs)   bands (ev):

   -61.8973 -36.1018 -35.8503 -35.8427 -15.3615 -14.0180  -6.9037  -3.8864
    -3.7669  -3.2326  -2.7065  -2.4792  -1.2512

     occupation numbers 
     1.0000   1.0000   1.0000   1.0000   1.0000   1.0000   1.0000   1.0000
     1.0000   1.0000   1.0000   1.0000   1.0000

          k = 0.0000 0.1100 0.0000 ( 14863 PWs)   bands (ev):

   -61.8944 -36.0961 -35.8788 -35.8492 -15.2554 -13.9749  -6.7862  -4.1098
    -3.6560  -3.5906  -2.8679  -2.2893  -1.3000

     occupation numbers 
     1.0000   1.0000   1.0000   1.0000   1.0000   1.0000   1.0000   1.0000
     1.0000   1.0000   1.0000   1.0000   1.0000

          k = 0.0000 0.1650 0.0000 ( 14855 PWs)   bands (ev):

   -61.8898 -36.0873 -35.9233 -35.8592 -15.0846 -13.9054  -6.6116  -4.4198
    -3.9732  -3.4798  -3.0964  -2.2208  -1.4141

     occupation numbers 
     1.0000   1.0000   1.0000   1.0000   1.0000   1.0000   1.0000   1.0000
     1.0000   1.0000   1.0000   1.0000   1.0000

          k = 0.0000 0.2199 0.0000 ( 14815 PWs)   bands (ev):

   -61.8841 -36.0760 -35.9794 -35.8720 -14.8580 -13.8136  -6.4235  -4.7438
    -4.3636  -3.3546  -3.2517  -2.2911  -1.6164

     occupation numbers 
     1.0000   1.0000   1.0000   1.0000   1.0000   1.0000   1.0000   1.0000
     1.0000   1.0000   1.0000   1.0000   1.0000

          k = 0.0000 0.2749 0.0000 ( 14799 PWs)   bands (ev):

   -61.8776 -36.0632 -36.0420 -35.8864 -14.5885 -13.7050  -6.3078  -4.9926
    -4.7539  -3.6129  -2.9911  -2.4552  -1.8786

     occupation numbers 
     1.0000   1.0000   1.0000   1.0000   1.0000   1.0000   1.0000   1.0000
     1.0000   1.0000   1.0000   1.0000   1.0000

          k = 0.0000 0.3299 0.0000 ( 14811 PWs)   bands (ev):

   -61.8709 -36.1054 -36.0502 -35.9011 -14.2936 -13.5876  -6.3629  -5.1322
    -5.0967  -3.8505  -2.7236  -2.6473  -2.1081

     occupation numbers 
     1.0000   1.0000   1.0000   1.0000   1.0000   1.0000   1.0000   1.0000
     1.0000   1.0000   1.0000   1.0000   1.0000

          k = 0.0000 0.3849 0.0000 ( 14770 PWs)   bands (ev):

   -61.8647 -36.1641 -36.0380 -35.9147 -13.9962 -13.4711  -6.5626  -5.4799
    -5.1249  -4.0534  -2.8200  -2.4777  -2.2013

     occupation numbers 
     1.0000   1.0000   1.0000   1.0000   1.0000   1.0000   1.0000   1.0000
     1.0000   1.0000   1.0000   1.0000   1.0000

          k = 0.0000 0.4399 0.0000 ( 14722 PWs)   bands (ev):

   -61.8595 -36.2130 -36.0277 -35.9262 -13.7252 -13.3675  -6.7984  -5.7726
    -5.1834  -4.2122  -2.9516  -2.2792  -2.1288

     occupation numbers 
     1.0000   1.0000   1.0000   1.0000   1.0000   1.0000   1.0000   1.0000
     1.0000   1.0000   1.0000   1.0000   1.0000

          k = 0.0000 0.4949 0.0000 ( 14716 PWs)   bands (ev):

   -61.8557 -36.2480 -36.0203 -35.9344 -13.5147 -13.2890  -6.9947  -5.9852
    -5.2694  -4.3210  -3.0374  -2.1441  -1.9701

     occupation numbers 
     1.0000   1.0000   1.0000   1.0000   1.0000   1.0000   1.0000   1.0000
     1.0000   1.0000   1.0000   1.0000   1.0000

          k = 0.0000 0.5499 0.0000 ( 14720 PWs)   bands (ev):

   -61.8537 -36.2662 -36.0164 -35.9387 -13.3985 -13.2466  -7.1055  -6.0973
    -5.3299  -4.3762  -3.0790  -2.0771  -1.8486

     occupation numbers 
     1.0000   1.0000   1.0000   1.0000   1.0000   1.0000   1.0000   1.0000
     1.0000   1.0000   1.0000   1.0000   1.0000

          k = 0.0476 0.0825 0.0000 ( 14875 PWs)   bands (ev):

   -61.8953 -36.0980 -35.8693 -35.8472 -15.2905 -13.9891  -6.8243  -4.0383
    -3.6932  -3.4862  -2.8325  -2.3182  -1.2818

     occupation numbers 
     1.0000   1.0000   1.0000   1.0000   1.0000   1.0000   1.0000   1.0000
     1.0000   1.0000   1.0000   1.0000   1.0000

          k = 0.0476 0.1375 0.0000 ( 14858 PWs)   bands (ev):

   -61.8916 -36.0907 -35.9053 -35.8559 -15.1520 -13.9328  -6.6772  -4.3027
    -3.8187  -3.5521  -3.0633  -2.1857  -1.3632

     occupation numbers 
     1.0000   1.0000   1.0000   1.0000   1.0000   1.0000   1.0000   1.0000
     1.0000   1.0000   1.0000   1.0000   1.0000

          k = 0.0476 0.1925 0.0000 ( 14822 PWs)   bands (ev):

   -61.8865 -36.0807 -35.9549 -35.8680 -14.9531 -13.8520  -6.4917  -4.6166
    -4.1782  -3.3561  -3.3423  -2.1713  -1.5226

     occupation numbers 
     1.0000   1.0000   1.0000   1.0000   1.0000   1.0000   1.0000   1.0000
     1.0000   1.0000   1.0000   1.0000   1.0000

          k = 0.0476 0.2474 0.0000 ( 14793 PWs)   bands (ev):

   -61.8803 -36.0686 -36.0135 -35.8824 -14.7048 -13.7515  -6.3307  -4.8997
    -4.5548  -3.6205  -3.1264  -2.2793  -1.7577

     occupation numbers 
     1.0000   1.0000   1.0000   1.0000   1.0000   1.0000   1.0000   1.0000
     1.0000   1.0000   1.0000   1.0000   1.0000

          k = 0.0476 0.3024 0.0000 ( 14812 PWs)   bands (ev):

   -61.8738 -36.0757 -36.0557 -35.8978 -14.4220 -13.6379  -6.2977  -5.0614
    -4.9397  -3.8652  -2.8960  -2.4608  -1.9975

     occupation numbers 
     1.0000   1.0000   1.0000   1.0000   1.0000   1.0000   1.0000   1.0000
     1.0000   1.0000   1.0000   1.0000   1.0000

          k = 0.0476 0.3574 0.0000 ( 14790 PWs)   bands (ev):

   -61.8673 -36.1359 -36.0431 -35.9128 -14.1247 -13.5200  -6.4377  -5.3130
    -5.0982  -4.0623  -2.7105  -2.6589  -2.1180

     occupation numbers 
     1.0000   1.0000   1.0000   1.0000   1.0000   1.0000   1.0000   1.0000
     1.0000   1.0000   1.0000   1.0000   1.0000

          k = 0.0476 0.4124 0.0000 ( 14759 PWs)   bands (ev):

   -61.8616 -36.1890 -36.0318 -35.9260 -13.8387 -13.4088  -6.6619  -5.6465
    -5.1303  -4.2105  -2.8343  -2.5768  -2.0598

     occupation numbers 
     1.0000   1.0000   1.0000   1.0000   1.0000   1.0000   1.0000   1.0000
     1.0000   1.0000   1.0000   1.0000   1.0000

          k = 0.0476 0.4674 0.0000 ( 14731 PWs)   bands (ev):

   -61.8571 -36.2303 -36.0230 -35.9364 -13.5957 -13.3165  -6.8780  -5.9107
    -5.2094  -4.3128  -2.9669  -2.4481  -1.9119

     occupation numbers 
     1.0000   1.0000   1.0000   1.0000   1.0000   1.0000   1.0000   1.0000
     1.0000   1.0000   1.0000   1.0000   1.0000

          k = 0.0476 0.5224 0.0000 ( 14718 PWs)   bands (ev):

   -61.8542 -36.2566 -36.0173 -35.9430 -13.4302 -13.2550  -7.0305  -6.0806
    -5.2914  -4.3728  -3.0480  -2.3472  -1.7700

     occupation numbers 
     1.0000   1.0000   1.0000   1.0000   1.0000   1.0000   1.0000   1.0000
     1.0000   1.0000   1.0000   1.0000   1.0000

          k = 0.0476 0.5774 0.0000 ( 14714 PWs)   bands (ev):

   -61.8532 -36.2656 -36.0154 -35.9453 -13.3712 -13.2334  -7.0855  -6.1392
    -5.3250  -4.3926  -3.0752  -2.3107  -1.7103

     occupation numbers 
     1.0000   1.0000   1.0000   1.0000   1.0000   1.0000   1.0000   1.0000
     1.0000   1.0000   1.0000   1.0000   1.0000

          k = 0.0952 0.1650 0.0000 ( 14827 PWs)   bands (ev):

   -61.8873 -36.0823 -35.9457 -35.8675 -14.9854 -13.8650  -6.5162  -4.5674
    -4.0865  -3.3964  -3.3932  -2.0924  -1.4905

     occupation numbers 
     1.0000   1.0000   1.0000   1.0000   1.0000   1.0000   1.0000   1.0000
     1.0000   1.0000   1.0000   1.0000   1.0000

          k = 0.0952 0.2199 0.0000 ( 14813 PWs)   bands (ev):

   -61.8818 -36.0715 -35.9964 -35.8826 -14.7645 -13.7752  -6.3469  -4.8354
    -4.3841  -3.7501  -3.2149  -2.0968  -1.6874

     occupation numbers 
     1.0000   1.0000   1.0000   1.0000   1.0000   1.0000   1.0000   1.0000
     1.0000   1.0000   1.0000   1.0000   1.0000

          k = 0.0952 0.2749 0.0000 ( 14793 PWs)   bands (ev):

   -61.8756 -36.0593 -36.0528 -35.8997 -14.5021 -13.6689  -6.2542  -5.0181
    -4.7365  -4.0384  -3.0522  -2.2128  -1.9053

     occupation numbers 
     1.0000   1.0000   1.0000   1.0000   1.0000   1.0000   1.0000   1.0000
     1.0000   1.0000   1.0000   1.0000   1.0000

          k = 0.0952 0.3299 0.0000 ( 14799 PWs)   bands (ev):

   -61.8692 -36.1099 -36.0468 -35.9172 -14.2153 -13.5535  -6.3204  -5.1319
    -5.0619  -4.2246  -2.9658  -2.4027  -2.0325

     occupation numbers 
     1.0000   1.0000   1.0000   1.0000   1.0000   1.0000   1.0000   1.0000
     1.0000   1.0000   1.0000   1.0000   1.0000

          k = 0.0952 0.3849 0.0000 ( 14771 PWs)   bands (ev):

   -61.8632 -36.1627 -36.0351 -35.9335 -13.9268 -13.4389  -6.5037  -5.5168
    -5.0583  -4.3309  -2.9411  -2.6169  -2.0038

     occupation numbers 
     1.0000   1.0000   1.0000   1.0000   1.0000   1.0000   1.0000   1.0000
     1.0000   1.0000   1.0000   1.0000   1.0000

          k = 0.0952 0.4399 0.0000 ( 14747 PWs)   bands (ev):

   -61.8582 -36.2067 -36.0253 -35.9472 -13.6648 -13.3365  -6.7095  -5.8438
    -5.1128  -4.3835  -2.8878  -2.8150  -1.8777

     occupation numbers 
     1.0000   1.0000   1.0000   1.0000   1.0000   1.0000   1.0000   1.0000
     1.0000   1.0000   1.0000   1.0000   1.0000

          k = 0.0952 0.4949 0.0000 ( 14735 PWs)   bands (ev):

   -61.8546 -36.2383 -36.0182 -35.9571 -13.4622 -13.2588  -6.8775  -6.0803
    -5.2088  -4.4025  -2.9671  -2.8082  -1.7245

     occupation numbers 
     1.0000   1.0000   1.0000   1.0000   1.0000   1.0000   1.0000   1.0000
     1.0000   1.0000   1.0000   1.0000   1.0000

          k = 0.0952 0.5499 0.0000 ( 14714 PWs)   bands (ev):

   -61.8527 -36.2547 -36.0145 -35.9622 -13.3506 -13.2167  -6.9714  -6.2043
    -5.2782  -4.4060  -3.0501  -2.7560  -1.6147

     occupation numbers 
     1.0000   1.0000   1.0000   1.0000   1.0000   1.0000   1.0000   1.0000
     1.0000   1.0000   1.0000   1.0000   1.0000

          k = 0.1429 0.2474 0.0000 ( 14801 PWs)   bands (ev):

   -61.8762 -36.0605 -36.0438 -35.9014 -14.5292 -13.6793  -6.2390  -4.9986
    -4.6147  -4.1620  -3.1124  -2.1017  -1.8715

     occupation numbers 
     1.0000   1.0000   1.0000   1.0000   1.0000   1.0000   1.0000   1.0000
     1.0000   1.0000   1.0000   1.0000   1.0000

          k = 0.1429 0.3024 0.0000 ( 14798 PWs)   bands (ev):

   -61.8702 -36.0934 -36.0487 -35.9224 -14.2620 -13.5705  -6.2478  -5.0352
    -4.9694  -4.4038  -3.1206  -2.2148  -1.9887

     occupation numbers 
     1.0000   1.0000   1.0000   1.0000   1.0000   1.0000   1.0000   1.0000
     1.0000   1.0000   1.0000   1.0000   1.0000

          k = 0.1429 0.3574 0.0000 ( 14791 PWs)   bands (ev):

   -61.8643 -36.1409 -36.0372 -35.9435 -13.9823 -13.4570  -6.3727  -5.3942
    -4.9878  -4.4872  -3.2297  -2.4083  -1.9833

     occupation numbers 
     1.0000   1.0000   1.0000   1.0000   1.0000   1.0000   1.0000   1.0000
     1.0000   1.0000   1.0000   1.0000   1.0000

          k = 0.1429 0.4124 0.0000 ( 14771 PWs)   bands (ev):

   -61.8591 -36.1826 -36.0270 -35.9624 -13.7150 -13.3493  -6.5376  -5.7819
    -4.9885  -4.4940  -3.3146  -2.6355  -1.8862

     occupation numbers 
     1.0000   1.0000   1.0000   1.0000   1.0000   1.0000   1.0000   1.0000
     1.0000   1.0000   1.0000   1.0000   1.0000

          k = 0.1429 0.4674 0.0000 ( 14749 PWs)   bands (ev):

   -61.8550 -36.2150 -36.0189 -35.9773 -13.4896 -13.2594  -6.6850  -6.0855
    -5.0806  -4.4602  -3.3165  -2.8501  -1.7367

     occupation numbers 
     1.0000   1.0000   1.0000   1.0000   1.0000   1.0000   1.0000   1.0000
     1.0000   1.0000   1.0000   1.0000   1.0000

          k = 0.1429 0.5224 0.0000 ( 14744 PWs)   bands (ev):

   -61.8524 -36.2356 -36.0137 -35.9869 -13.3373 -13.1993  -6.7843  -6.2783
    -5.1893  -4.4163  -3.2862  -3.0077  -1.5877

     occupation numbers 
     1.0000   1.0000   1.0000   1.0000   1.0000   1.0000   1.0000   1.0000
     1.0000   1.0000   1.0000   1.0000   1.0000

          k = 0.1429 0.5774 0.0000 ( 14722 PWs)   bands (ev):

   -61.8515 -36.2426 -36.0120 -35.9901 -13.2833 -13.1782  -6.8192  -6.3444
    -5.2350  -4.3959  -3.2719  -3.0668  -1.5224

     occupation numbers 
     1.0000   1.0000   1.0000   1.0000   1.0000   1.0000   1.0000   1.0000
     1.0000   1.0000   1.0000   1.0000   1.0000

          k = 0.1905 0.3299 0.0000 ( 14781 PWs)   bands (ev):

   -61.8647 -36.1321 -36.0379 -35.9482 -14.0013 -13.4631  -6.3210  -5.3357
    -4.9560  -4.5631  -3.3429  -2.3224  -1.9791

     occupation numbers 
     1.0000   1.0000   1.0000   1.0000   1.0000   1.0000   1.0000   1.0000
     1.0000   1.0000   1.0000   1.0000   1.0000

          k = 0.1905 0.3849 0.0000 ( 14753 PWs)   bands (ev):

   -61.8595 -36.1662 -36.0278 -35.9741 -13.7413 -13.3555  -6.4260  -5.7401
    -4.8781  -4.5751  -3.6047  -2.5143  -1.9016

     occupation numbers 
     1.0000   1.0000   1.0000   1.0000   1.0000   1.0000   1.0000   1.0000
     1.0000   1.0000   1.0000   1.0000   1.0000

          k = 0.1905 0.4399 0.0000 ( 14749 PWs)   bands (ev):

   -61.8552 -36.1936 -36.0193 -35.9969 -13.5081 -13.2588  -6.5173  -6.0895
    -4.9129  -4.5155  -3.7719  -2.7440  -1.7653

     occupation numbers 
     1.0000   1.0000   1.0000   1.0000   1.0000   1.0000   1.0000   1.0000
     1.0000   1.0000   1.0000   1.0000   1.0000

          k = 0.1905 0.4949 0.0000 ( 14736 PWs)   bands (ev):

   -61.8521 -36.2127 -36.0139 -36.0132 -13.3300 -13.1849  -6.5742  -6.3417
    -5.0507  -4.4264  -3.8198  -2.9577  -1.5932

     occupation numbers 
     1.0000   1.0000   1.0000   1.0000   1.0000   1.0000   1.0000   1.0000
     1.0000   1.0000   1.0000   1.0000   1.0000

          k = 0.1905 0.5499 0.0000 ( 14754 PWs)   bands (ev):

   -61.8504 -36.2225 -36.0230 -36.0100 -13.2329 -13.1446  -6.5977  -6.4736
    -5.1645  -4.3567  -3.8217  -3.0933  -1.4621

     occupation numbers 
     1.0000   1.0000   1.0000   1.0000   1.0000   1.0000   1.0000   1.0000
     1.0000   1.0000   1.0000   1.0000   1.0000

          k = 0.2381 0.4124 0.0000 ( 14762 PWs)   bands (ev):

   -61.8553 -36.1844 -36.0195 -36.0056 -13.5146 -13.2583  -6.4493  -6.0907
    -4.8027  -4.5379  -3.9909  -2.7010  -1.7787

     occupation numbers 
     1.0000   1.0000   1.0000   1.0000   1.0000   1.0000   1.0000   1.0000
     1.0000   1.0000   1.0000   1.0000   1.0000

          k = 0.2381 0.4674 0.0000 ( 14739 PWs)   bands (ev):

   -61.8519 -36.1951 -36.0338 -36.0129 -13.3269 -13.1766  -6.4270  -6.3779
    -4.8656  -4.4338  -4.2478  -2.9225  -1.6034

     occupation numbers 
     1.0000   1.0000   1.0000   1.0000   1.0000   1.0000   1.0000   1.0000
     1.0000   1.0000   1.0000   1.0000   1.0000

          k = 0.2381 0.5224 0.0000 ( 14764 PWs)   bands (ev):

   -61.8498 -36.1999 -36.0538 -36.0087 -13.2022 -13.1216  -6.5639  -6.3723
    -5.0560  -4.3199  -4.3170  -3.1160  -1.4226

     occupation numbers 
     1.0000   1.0000   1.0000   1.0000   1.0000   1.0000   1.0000   1.0000
     1.0000   1.0000   1.0000   1.0000   1.0000

          k = 0.2381 0.5774 0.0000 ( 14776 PWs)   bands (ev):

   -61.8491 -36.2011 -36.0612 -36.0073 -13.1584 -13.1022  -6.6281  -6.3396
    -5.1553  -4.3282  -4.2615  -3.1982  -1.3404

     occupation numbers 
     1.0000   1.0000   1.0000   1.0000   1.0000   1.0000   1.0000   1.0000
     1.0000   1.0000   1.0000   1.0000   1.0000

          k = 0.2857 0.4949 0.0000 ( 14730 PWs)   bands (ev):

   -61.8496 -36.1884 -36.0682 -36.0083 -13.1919 -13.1135  -6.5961  -6.2684
    -4.9446  -4.5913  -4.3007  -3.1247  -1.4080

     occupation numbers 
     1.0000   1.0000   1.0000   1.0000   1.0000   1.0000   1.0000   1.0000
     1.0000   1.0000   1.0000   1.0000   1.0000

          k = 0.2857 0.5499 0.0000 ( 14738 PWs)   bands (ev):

   -61.8483 -36.1791 -36.0920 -36.0059 -13.1197 -13.0789  -6.7127  -6.0976
    -5.1884  -4.6631  -4.1863  -3.2760  -1.2560

     occupation numbers 
     1.0000   1.0000   1.0000   1.0000   1.0000   1.0000   1.0000   1.0000
     1.0000   1.0000   1.0000   1.0000   1.0000

          k = 0.3333 0.5774 0.0000 ( 14760 PWs)   bands (ev):

   -61.8478 -36.1634 -36.1136 -36.0049 -13.0912 -13.0638  -6.7649  -5.8979
    -5.3742  -4.7472  -4.1207  -3.3515  -1.1804

     occupation numbers 
     1.0000   1.0000   1.0000   1.0000   1.0000   1.0000   1.0000   1.0000
     1.0000   1.0000   1.0000   1.0000   1.0000

     highest occupied level (ev):    -1.1804

!    total energy              =    -184.83183121 Ry
     estimated scf accuracy    <          5.0E-16 Ry

     convergence has been achieved in  36 iterations

     Forces acting on atoms (cartesian axes, Ry/au):

     atom    1 type  1   force =     0.00000000    0.00000000    0.00000000
     atom    2 type  2   force =     0.00000000   -0.00000000    0.00024908
     atom    3 type  2   force =    -0.00000000   -0.00000000   -0.00024908
     The non-local contrib.  to forces
     atom    1 type  1   force =     0.00000000    0.00000000    0.00000000
     atom    2 type  2   force =     0.00000000   -0.00000000   -0.25572496
     atom    3 type  2   force =     0.00000000   -0.00000000    0.25572496
     The ionic contribution  to forces
     atom    1 type  1   force =     0.00000001    0.00000097    0.00000000
     atom    2 type  2   force =    -0.00000000   -0.00000048   37.43274454
     atom    3 type  2   force =    -0.00000000   -0.00000048  -37.43274454
     The local contribution  to forces
     atom    1 type  1   force =    -0.00000000    0.00002380    0.00000000
     atom    2 type  2   force =    -0.00000001    0.00000001  -37.18094325
     atom    3 type  2   force =    -0.00000001    0.00000001   37.18094325
     The core correction contribution to forces
     atom    1 type  1   force =     0.00000000   -0.00000040   -0.00000000
     atom    2 type  2   force =     0.00000000   -0.00000000    0.00417276
     atom    3 type  2   force =     0.00000000   -0.00000000   -0.00417276
     The Hubbard contrib.    to forces
     atom    1 type  1   force =     0.00000000    0.00000000    0.00000000
     atom    2 type  2   force =     0.00000000    0.00000000    0.00000000
     atom    3 type  2   force =     0.00000000    0.00000000    0.00000000
     The SCF correction term to forces
     atom    1 type  1   force =    -0.00000000   -0.00000000   -0.00000000
     atom    2 type  2   force =     0.00000000   -0.00000000   -0.00000001
     atom    3 type  2   force =     0.00000000   -0.00000000    0.00000001

     Total force =     0.000352     Total SCF correction =     0.000000

     Entering Dynamics:    iteration =     4

     <vel(dt)|acc(dt)> =  -1.00000000

ATOMIC_POSITIONS (crystal)
Mo               0.3333333000        0.6666666000        0.5000000000    0   0   0
S                0.6666666670        0.3333333330        0.5735831472    0   0   1
S                0.6666666670        0.3333333330        0.4264168528    0   0   1



     Writing config-only to output data dir ./tmp/MoS2.save/ :
     XML data file
     NEW-OLD atomic charge density approx. for the potential

     total cpu time spent up to now is      216.3 secs

     per-process dynamical memory:    73.2 Mb

     Self-consistent Calculation

     iteration #  1     ecut=    80.00 Ry     beta= 0.20
     Davidson diagonalization with overlap

---- Real-time Memory Report at c_bands before calling an iterative solver
            93 MiB given to the printing process from OS
            71 MiB allocation reported by mallinfo(arena+hblkhd)
        243598 MiB available memory on the node where the printing process lives
------------------
     ethr =  1.00E-06,  avg # of iterations =  1.0

     Threshold (ethr) on eigenvalues was too large:
     Diagonalizing with lowered threshold

     Davidson diagonalization with overlap

---- Real-time Memory Report at c_bands before calling an iterative solver
            93 MiB given to the printing process from OS
            71 MiB allocation reported by mallinfo(arena+hblkhd)
        243597 MiB available memory on the node where the printing process lives
------------------
     ethr =  3.63E-10,  avg # of iterations =  4.9

     total cpu time spent up to now is      218.7 secs

     total energy              =    -184.83183132 Ry
     estimated scf accuracy    <          3.0E-09 Ry

     iteration #  2     ecut=    80.00 Ry     beta= 0.20
     Davidson diagonalization with overlap

---- Real-time Memory Report at c_bands before calling an iterative solver
            93 MiB given to the printing process from OS
            71 MiB allocation reported by mallinfo(arena+hblkhd)
        243598 MiB available memory on the node where the printing process lives
------------------
     ethr =  1.17E-11,  avg # of iterations =  5.8

     total cpu time spent up to now is      220.3 secs

     total energy              =    -184.83183132 Ry
     estimated scf accuracy    <          4.4E-09 Ry

     iteration #  3     ecut=    80.00 Ry     beta= 0.20
     Davidson diagonalization with overlap

---- Real-time Memory Report at c_bands before calling an iterative solver
            93 MiB given to the printing process from OS
            71 MiB allocation reported by mallinfo(arena+hblkhd)
        243597 MiB available memory on the node where the printing process lives
------------------
     ethr =  1.17E-11,  avg # of iterations =  1.0

     total cpu time spent up to now is      221.2 secs

     total energy              =    -184.83183132 Ry
     estimated scf accuracy    <          4.0E-09 Ry

     iteration #  4     ecut=    80.00 Ry     beta= 0.20
     Davidson diagonalization with overlap

---- Real-time Memory Report at c_bands before calling an iterative solver
            93 MiB given to the printing process from OS
            71 MiB allocation reported by mallinfo(arena+hblkhd)
        243597 MiB available memory on the node where the printing process lives
------------------
     ethr =  1.17E-11,  avg # of iterations =  5.6

     total cpu time spent up to now is      223.0 secs

     total energy              =    -184.83183132 Ry
     estimated scf accuracy    <       0.00000002 Ry

     iteration #  5     ecut=    80.00 Ry     beta= 0.20
     Davidson diagonalization with overlap

---- Real-time Memory Report at c_bands before calling an iterative solver
            93 MiB given to the printing process from OS
            71 MiB allocation reported by mallinfo(arena+hblkhd)
        243598 MiB available memory on the node where the printing process lives
------------------
     ethr =  1.17E-11,  avg # of iterations =  1.8

     total cpu time spent up to now is      224.0 secs

     total energy              =    -184.83183131 Ry
     estimated scf accuracy    <       0.00000001 Ry

     iteration #  6     ecut=    80.00 Ry     beta= 0.20
     Davidson diagonalization with overlap

---- Real-time Memory Report at c_bands before calling an iterative solver
            93 MiB given to the printing process from OS
            71 MiB allocation reported by mallinfo(arena+hblkhd)
        243598 MiB available memory on the node where the printing process lives
------------------
     ethr =  1.17E-11,  avg # of iterations =  6.0

     total cpu time spent up to now is      225.7 secs

     total energy              =    -184.83183132 Ry
     estimated scf accuracy    <          1.6E-09 Ry

     iteration #  7     ecut=    80.00 Ry     beta= 0.20
     Davidson diagonalization with overlap

---- Real-time Memory Report at c_bands before calling an iterative solver
            93 MiB given to the printing process from OS
            71 MiB allocation reported by mallinfo(arena+hblkhd)
        243598 MiB available memory on the node where the printing process lives
------------------
     ethr =  6.21E-12,  avg # of iterations =  2.4

     total cpu time spent up to now is      226.7 secs

     total energy              =    -184.83183132 Ry
     estimated scf accuracy    <          3.0E-10 Ry

     iteration #  8     ecut=    80.00 Ry     beta= 0.20
     Davidson diagonalization with overlap

---- Real-time Memory Report at c_bands before calling an iterative solver
            93 MiB given to the printing process from OS
            71 MiB allocation reported by mallinfo(arena+hblkhd)
        243600 MiB available memory on the node where the printing process lives
------------------
     ethr =  1.16E-12,  avg # of iterations =  6.0

     total cpu time spent up to now is      228.4 secs

     total energy              =    -184.83183132 Ry
     estimated scf accuracy    <          6.6E-10 Ry

     iteration #  9     ecut=    80.00 Ry     beta= 0.20
     Davidson diagonalization with overlap

---- Real-time Memory Report at c_bands before calling an iterative solver
            93 MiB given to the printing process from OS
            71 MiB allocation reported by mallinfo(arena+hblkhd)
        243596 MiB available memory on the node where the printing process lives
------------------
     ethr =  1.16E-12,  avg # of iterations =  1.3

     total cpu time spent up to now is      229.3 secs

     total energy              =    -184.83183132 Ry
     estimated scf accuracy    <          4.2E-10 Ry

     iteration # 10     ecut=    80.00 Ry     beta= 0.20
     Davidson diagonalization with overlap

---- Real-time Memory Report at c_bands before calling an iterative solver
            93 MiB given to the printing process from OS
            71 MiB allocation reported by mallinfo(arena+hblkhd)
        243596 MiB available memory on the node where the printing process lives
------------------
     ethr =  1.16E-12,  avg # of iterations =  4.5

     total cpu time spent up to now is      230.7 secs

     total energy              =    -184.83183132 Ry
     estimated scf accuracy    <          7.6E-11 Ry

     iteration # 11     ecut=    80.00 Ry     beta= 0.20
     Davidson diagonalization with overlap

---- Real-time Memory Report at c_bands before calling an iterative solver
            93 MiB given to the printing process from OS
            71 MiB allocation reported by mallinfo(arena+hblkhd)
        243596 MiB available memory on the node where the printing process lives
------------------
     ethr =  2.92E-13,  avg # of iterations =  2.9

     total cpu time spent up to now is      231.8 secs

     total energy              =    -184.83183132 Ry
     estimated scf accuracy    <          1.4E-10 Ry

     iteration # 12     ecut=    80.00 Ry     beta= 0.20
     Davidson diagonalization with overlap

---- Real-time Memory Report at c_bands before calling an iterative solver
            93 MiB given to the printing process from OS
            71 MiB allocation reported by mallinfo(arena+hblkhd)
        243596 MiB available memory on the node where the printing process lives
------------------
     ethr =  2.92E-13,  avg # of iterations =  2.7

     total cpu time spent up to now is      232.9 secs

     total energy              =    -184.83183132 Ry
     estimated scf accuracy    <          3.2E-11 Ry

     iteration # 13     ecut=    80.00 Ry     beta= 0.20
     Davidson diagonalization with overlap

---- Real-time Memory Report at c_bands before calling an iterative solver
            93 MiB given to the printing process from OS
            71 MiB allocation reported by mallinfo(arena+hblkhd)
        243596 MiB available memory on the node where the printing process lives
------------------
     ethr =  1.22E-13,  avg # of iterations =  2.6

     total cpu time spent up to now is      234.0 secs

     total energy              =    -184.83183132 Ry
     estimated scf accuracy    <          1.3E-11 Ry

     iteration # 14     ecut=    80.00 Ry     beta= 0.20
     Davidson diagonalization with overlap

---- Real-time Memory Report at c_bands before calling an iterative solver
            93 MiB given to the printing process from OS
            71 MiB allocation reported by mallinfo(arena+hblkhd)
        243596 MiB available memory on the node where the printing process lives
------------------
     ethr =  1.00E-13,  avg # of iterations =  1.8

     total cpu time spent up to now is      235.0 secs

     total energy              =    -184.83183132 Ry
     estimated scf accuracy    <          5.1E-12 Ry

     iteration # 15     ecut=    80.00 Ry     beta= 0.20
     Davidson diagonalization with overlap

---- Real-time Memory Report at c_bands before calling an iterative solver
            93 MiB given to the printing process from OS
            71 MiB allocation reported by mallinfo(arena+hblkhd)
        243598 MiB available memory on the node where the printing process lives
------------------
     ethr =  1.00E-13,  avg # of iterations =  1.0

     total cpu time spent up to now is      236.0 secs

     total energy              =    -184.83183132 Ry
     estimated scf accuracy    <          2.4E-12 Ry

     iteration # 16     ecut=    80.00 Ry     beta= 0.20
     Davidson diagonalization with overlap

---- Real-time Memory Report at c_bands before calling an iterative solver
            93 MiB given to the printing process from OS
            71 MiB allocation reported by mallinfo(arena+hblkhd)
        243597 MiB available memory on the node where the printing process lives
------------------
     ethr =  1.00E-13,  avg # of iterations =  1.0

     total cpu time spent up to now is      236.9 secs

     total energy              =    -184.83183132 Ry
     estimated scf accuracy    <          1.5E-12 Ry

     iteration # 17     ecut=    80.00 Ry     beta= 0.20
     Davidson diagonalization with overlap

---- Real-time Memory Report at c_bands before calling an iterative solver
            93 MiB given to the printing process from OS
            71 MiB allocation reported by mallinfo(arena+hblkhd)
        243597 MiB available memory on the node where the printing process lives
------------------
     ethr =  1.00E-13,  avg # of iterations =  1.0

     total cpu time spent up to now is      237.9 secs

     total energy              =    -184.83183132 Ry
     estimated scf accuracy    <          1.0E-12 Ry

     iteration # 18     ecut=    80.00 Ry     beta= 0.20
     Davidson diagonalization with overlap

---- Real-time Memory Report at c_bands before calling an iterative solver
            93 MiB given to the printing process from OS
            71 MiB allocation reported by mallinfo(arena+hblkhd)
        243597 MiB available memory on the node where the printing process lives
------------------
     ethr =  1.00E-13,  avg # of iterations =  1.0

     total cpu time spent up to now is      238.8 secs

     total energy              =    -184.83183132 Ry
     estimated scf accuracy    <          5.5E-14 Ry

     iteration # 19     ecut=    80.00 Ry     beta= 0.20
     Davidson diagonalization with overlap

---- Real-time Memory Report at c_bands before calling an iterative solver
            93 MiB given to the printing process from OS
            71 MiB allocation reported by mallinfo(arena+hblkhd)
        243596 MiB available memory on the node where the printing process lives
------------------
     ethr =  1.00E-13,  avg # of iterations =  1.0

     total cpu time spent up to now is      239.8 secs

     total energy              =    -184.83183132 Ry
     estimated scf accuracy    <          6.7E-14 Ry

     iteration # 20     ecut=    80.00 Ry     beta= 0.20
     Davidson diagonalization with overlap

---- Real-time Memory Report at c_bands before calling an iterative solver
            93 MiB given to the printing process from OS
            71 MiB allocation reported by mallinfo(arena+hblkhd)
        243597 MiB available memory on the node where the printing process lives
------------------
     ethr =  1.00E-13,  avg # of iterations =  1.0

     total cpu time spent up to now is      240.8 secs

     total energy              =    -184.83183132 Ry
     estimated scf accuracy    <          2.1E-14 Ry

     iteration # 21     ecut=    80.00 Ry     beta= 0.20
     Davidson diagonalization with overlap

---- Real-time Memory Report at c_bands before calling an iterative solver
            93 MiB given to the printing process from OS
            71 MiB allocation reported by mallinfo(arena+hblkhd)
        243597 MiB available memory on the node where the printing process lives
------------------
     ethr =  1.00E-13,  avg # of iterations =  1.0

     total cpu time spent up to now is      241.8 secs

     total energy              =    -184.83183132 Ry
     estimated scf accuracy    <          8.0E-14 Ry

     iteration # 22     ecut=    80.00 Ry     beta= 0.20
     Davidson diagonalization with overlap

---- Real-time Memory Report at c_bands before calling an iterative solver
            93 MiB given to the printing process from OS
            71 MiB allocation reported by mallinfo(arena+hblkhd)
        243598 MiB available memory on the node where the printing process lives
------------------
     ethr =  1.00E-13,  avg # of iterations =  1.0

     total cpu time spent up to now is      242.7 secs

     total energy              =    -184.83183132 Ry
     estimated scf accuracy    <          3.1E-13 Ry

     iteration # 23     ecut=    80.00 Ry     beta= 0.20
     Davidson diagonalization with overlap

---- Real-time Memory Report at c_bands before calling an iterative solver
            93 MiB given to the printing process from OS
            71 MiB allocation reported by mallinfo(arena+hblkhd)
        243598 MiB available memory on the node where the printing process lives
------------------
     ethr =  1.00E-13,  avg # of iterations =  1.0

     total cpu time spent up to now is      243.7 secs

     total energy              =    -184.83183132 Ry
     estimated scf accuracy    <          1.5E-13 Ry

     iteration # 24     ecut=    80.00 Ry     beta= 0.20
     Davidson diagonalization with overlap

---- Real-time Memory Report at c_bands before calling an iterative solver
            93 MiB given to the printing process from OS
            71 MiB allocation reported by mallinfo(arena+hblkhd)
        243597 MiB available memory on the node where the printing process lives
------------------
     ethr =  1.00E-13,  avg # of iterations =  1.0

     total cpu time spent up to now is      244.6 secs

     total energy              =    -184.83183132 Ry
     estimated scf accuracy    <          1.7E-14 Ry

     iteration # 25     ecut=    80.00 Ry     beta= 0.20
     Davidson diagonalization with overlap

---- Real-time Memory Report at c_bands before calling an iterative solver
            93 MiB given to the printing process from OS
            71 MiB allocation reported by mallinfo(arena+hblkhd)
        243594 MiB available memory on the node where the printing process lives
------------------
     ethr =  1.00E-13,  avg # of iterations =  1.0

     total cpu time spent up to now is      245.6 secs

     total energy              =    -184.83183132 Ry
     estimated scf accuracy    <          3.8E-14 Ry

     iteration # 26     ecut=    80.00 Ry     beta= 0.20
     Davidson diagonalization with overlap

---- Real-time Memory Report at c_bands before calling an iterative solver
            93 MiB given to the printing process from OS
            71 MiB allocation reported by mallinfo(arena+hblkhd)
        243600 MiB available memory on the node where the printing process lives
------------------
     ethr =  1.00E-13,  avg # of iterations =  1.0

     total cpu time spent up to now is      246.5 secs

     total energy              =    -184.83183132 Ry
     estimated scf accuracy    <          3.9E-14 Ry

     iteration # 27     ecut=    80.00 Ry     beta= 0.20
     Davidson diagonalization with overlap

---- Real-time Memory Report at c_bands before calling an iterative solver
            93 MiB given to the printing process from OS
            71 MiB allocation reported by mallinfo(arena+hblkhd)
        243600 MiB available memory on the node where the printing process lives
------------------
     ethr =  1.00E-13,  avg # of iterations =  1.0

     total cpu time spent up to now is      247.5 secs

     total energy              =    -184.83183132 Ry
     estimated scf accuracy    <          1.3E-14 Ry

     iteration # 28     ecut=    80.00 Ry     beta= 0.20
     Davidson diagonalization with overlap

---- Real-time Memory Report at c_bands before calling an iterative solver
            93 MiB given to the printing process from OS
            71 MiB allocation reported by mallinfo(arena+hblkhd)
        243600 MiB available memory on the node where the printing process lives
------------------
     ethr =  1.00E-13,  avg # of iterations =  1.0

     total cpu time spent up to now is      248.5 secs

     total energy              =    -184.83183132 Ry
     estimated scf accuracy    <          2.0E-14 Ry

     iteration # 29     ecut=    80.00 Ry     beta= 0.20
     Davidson diagonalization with overlap

---- Real-time Memory Report at c_bands before calling an iterative solver
            93 MiB given to the printing process from OS
            71 MiB allocation reported by mallinfo(arena+hblkhd)
        243600 MiB available memory on the node where the printing process lives
------------------
     ethr =  1.00E-13,  avg # of iterations =  1.0

     total cpu time spent up to now is      249.4 secs

     total energy              =    -184.83183132 Ry
     estimated scf accuracy    <          6.2E-14 Ry

     iteration # 30     ecut=    80.00 Ry     beta= 0.20
     Davidson diagonalization with overlap

---- Real-time Memory Report at c_bands before calling an iterative solver
            93 MiB given to the printing process from OS
            71 MiB allocation reported by mallinfo(arena+hblkhd)
        243600 MiB available memory on the node where the printing process lives
------------------
     ethr =  1.00E-13,  avg # of iterations =  1.0

     total cpu time spent up to now is      250.4 secs

     total energy              =    -184.83183132 Ry
     estimated scf accuracy    <          1.6E-14 Ry

     iteration # 31     ecut=    80.00 Ry     beta= 0.20
     Davidson diagonalization with overlap

---- Real-time Memory Report at c_bands before calling an iterative solver
            93 MiB given to the printing process from OS
            71 MiB allocation reported by mallinfo(arena+hblkhd)
        243600 MiB available memory on the node where the printing process lives
------------------
     ethr =  1.00E-13,  avg # of iterations =  1.0

     total cpu time spent up to now is      251.3 secs

     End of self-consistent calculation

          k = 0.0000 0.0000 0.0000 ( 14855 PWs)   bands (ev):

   -61.8982 -36.1036 -35.8404 -35.8404 -15.3969 -14.0326  -6.9442  -3.8037
    -3.8037  -3.0135  -2.6467  -2.6467  -1.2390

     occupation numbers 
     1.0000   1.0000   1.0000   1.0000   1.0000   1.0000   1.0000   1.0000
     1.0000   1.0000   1.0000   1.0000   1.0000

          k = 0.0000 0.0550 0.0000 ( 14883 PWs)   bands (ev):

   -61.8972 -36.1017 -35.8502 -35.8426 -15.3609 -14.0179  -6.9032  -3.8855
    -3.7659  -3.2325  -2.7057  -2.4788  -1.2516

     occupation numbers 
     1.0000   1.0000   1.0000   1.0000   1.0000   1.0000   1.0000   1.0000
     1.0000   1.0000   1.0000   1.0000   1.0000

          k = 0.0000 0.1100 0.0000 ( 14863 PWs)   bands (ev):

   -61.8943 -36.0960 -35.8787 -35.8490 -15.2548 -13.9748  -6.7856  -4.1089
    -3.6551  -3.5903  -2.8672  -2.2891  -1.3004

     occupation numbers 
     1.0000   1.0000   1.0000   1.0000   1.0000   1.0000   1.0000   1.0000
     1.0000   1.0000   1.0000   1.0000   1.0000

          k = 0.0000 0.1650 0.0000 ( 14855 PWs)   bands (ev):

   -61.8898 -36.0872 -35.9231 -35.8591 -15.0840 -13.9053  -6.6110  -4.4189
    -3.9729  -3.4789  -3.0956  -2.2207  -1.4144

     occupation numbers 
     1.0000   1.0000   1.0000   1.0000   1.0000   1.0000   1.0000   1.0000
     1.0000   1.0000   1.0000   1.0000   1.0000

          k = 0.0000 0.2199 0.0000 ( 14815 PWs)   bands (ev):

   -61.8840 -36.0759 -35.9793 -35.8719 -14.8574 -13.8135  -6.4229  -4.7431
    -4.3633  -3.3538  -3.2508  -2.2912  -1.6166

     occupation numbers 
     1.0000   1.0000   1.0000   1.0000   1.0000   1.0000   1.0000   1.0000
     1.0000   1.0000   1.0000   1.0000   1.0000

          k = 0.0000 0.2749 0.0000 ( 14799 PWs)   bands (ev):

   -61.8775 -36.0632 -36.0419 -35.8863 -14.5880 -13.7049  -6.3071  -4.9920
    -4.7535  -3.6121  -2.9903  -2.4554  -1.8786

     occupation numbers 
     1.0000   1.0000   1.0000   1.0000   1.0000   1.0000   1.0000   1.0000
     1.0000   1.0000   1.0000   1.0000   1.0000

          k = 0.0000 0.3299 0.0000 ( 14811 PWs)   bands (ev):

   -61.8709 -36.1053 -36.0501 -35.9010 -14.2931 -13.5873  -6.3621  -5.1319
    -5.0963  -3.8497  -2.7228  -2.6475  -2.1080

     occupation numbers 
     1.0000   1.0000   1.0000   1.0000   1.0000   1.0000   1.0000   1.0000
     1.0000   1.0000   1.0000   1.0000   1.0000

          k = 0.0000 0.3849 0.0000 ( 14770 PWs)   bands (ev):

   -61.8647 -36.1640 -36.0379 -35.9146 -13.9956 -13.4709  -6.5619  -5.4796
    -5.1245  -4.0526  -2.8202  -2.4769  -2.2012

     occupation numbers 
     1.0000   1.0000   1.0000   1.0000   1.0000   1.0000   1.0000   1.0000
     1.0000   1.0000   1.0000   1.0000   1.0000

          k = 0.0000 0.4399 0.0000 ( 14722 PWs)   bands (ev):

   -61.8594 -36.2128 -36.0276 -35.9260 -13.7246 -13.3672  -6.7978  -5.7723
    -5.1830  -4.2114  -2.9519  -2.2785  -2.1287

     occupation numbers 
     1.0000   1.0000   1.0000   1.0000   1.0000   1.0000   1.0000   1.0000
     1.0000   1.0000   1.0000   1.0000   1.0000

          k = 0.0000 0.4949 0.0000 ( 14716 PWs)   bands (ev):

   -61.8557 -36.2478 -36.0202 -35.9343 -13.5142 -13.2887  -6.9942  -5.9850
    -5.2690  -4.3202  -3.0376  -2.1435  -1.9700

     occupation numbers 
     1.0000   1.0000   1.0000   1.0000   1.0000   1.0000   1.0000   1.0000
     1.0000   1.0000   1.0000   1.0000   1.0000

          k = 0.0000 0.5499 0.0000 ( 14720 PWs)   bands (ev):

   -61.8537 -36.2660 -36.0163 -35.9385 -13.3979 -13.2462  -7.1051  -6.0971
    -5.3294  -4.3754  -3.0793  -2.0765  -1.8485

     occupation numbers 
     1.0000   1.0000   1.0000   1.0000   1.0000   1.0000   1.0000   1.0000
     1.0000   1.0000   1.0000   1.0000   1.0000

          k = 0.0476 0.0825 0.0000 ( 14875 PWs)   bands (ev):

   -61.8953 -36.0979 -35.8692 -35.8471 -15.2899 -13.9891  -6.8238  -4.0374
    -3.6922  -3.4860  -2.8318  -2.3179  -1.2822

     occupation numbers 
     1.0000   1.0000   1.0000   1.0000   1.0000   1.0000   1.0000   1.0000
     1.0000   1.0000   1.0000   1.0000   1.0000

          k = 0.0476 0.1375 0.0000 ( 14858 PWs)   bands (ev):

   -61.8916 -36.0906 -35.9052 -35.8558 -15.1514 -13.9327  -6.6766  -4.3018
    -3.8184  -3.5512  -3.0625  -2.1856  -1.3635

     occupation numbers 
     1.0000   1.0000   1.0000   1.0000   1.0000   1.0000   1.0000   1.0000
     1.0000   1.0000   1.0000   1.0000   1.0000

          k = 0.0476 0.1925 0.0000 ( 14822 PWs)   bands (ev):

   -61.8864 -36.0806 -35.9548 -35.8679 -14.9526 -13.8519  -6.4911  -4.6158
    -4.1779  -3.3552  -3.3416  -2.1713  -1.5228

     occupation numbers 
     1.0000   1.0000   1.0000   1.0000   1.0000   1.0000   1.0000   1.0000
     1.0000   1.0000   1.0000   1.0000   1.0000

          k = 0.0476 0.2474 0.0000 ( 14793 PWs)   bands (ev):

   -61.8803 -36.0686 -36.0134 -35.8823 -14.7043 -13.7513  -6.3300  -4.8991
    -4.5545  -3.6198  -3.1255  -2.2794  -1.7579

     occupation numbers 
     1.0000   1.0000   1.0000   1.0000   1.0000   1.0000   1.0000   1.0000
     1.0000   1.0000   1.0000   1.0000   1.0000

          k = 0.0476 0.3024 0.0000 ( 14812 PWs)   bands (ev):

   -61.8737 -36.0756 -36.0557 -35.8977 -14.4215 -13.6377  -6.2970  -5.0609
    -4.9393  -3.8646  -2.8952  -2.4610  -1.9975

     occupation numbers 
     1.0000   1.0000   1.0000   1.0000   1.0000   1.0000   1.0000   1.0000
     1.0000   1.0000   1.0000   1.0000   1.0000

          k = 0.0476 0.3574 0.0000 ( 14790 PWs)   bands (ev):

   -61.8673 -36.1358 -36.0430 -35.9126 -14.1242 -13.5198  -6.4370  -5.3127
    -5.0978  -4.0617  -2.7098  -2.6591  -2.1178

     occupation numbers 
     1.0000   1.0000   1.0000   1.0000   1.0000   1.0000   1.0000   1.0000
     1.0000   1.0000   1.0000   1.0000   1.0000

          k = 0.0476 0.4124 0.0000 ( 14759 PWs)   bands (ev):

   -61.8615 -36.1888 -36.0318 -35.9259 -13.8382 -13.4085  -6.6613  -5.6462
    -5.1299  -4.2098  -2.8346  -2.5763  -2.0595

     occupation numbers 
     1.0000   1.0000   1.0000   1.0000   1.0000   1.0000   1.0000   1.0000
     1.0000   1.0000   1.0000   1.0000   1.0000

          k = 0.0476 0.4674 0.0000 ( 14731 PWs)   bands (ev):

   -61.8570 -36.2302 -36.0229 -35.9363 -13.5952 -13.3161  -6.8774  -5.9104
    -5.2090  -4.3121  -2.9671  -2.4477  -1.9116

     occupation numbers 
     1.0000   1.0000   1.0000   1.0000   1.0000   1.0000   1.0000   1.0000
     1.0000   1.0000   1.0000   1.0000   1.0000

          k = 0.0476 0.5224 0.0000 ( 14718 PWs)   bands (ev):

   -61.8542 -36.2564 -36.0173 -35.9429 -13.4296 -13.2546  -7.0300  -6.0803
    -5.2910  -4.3721  -3.0483  -2.3468  -1.7697

     occupation numbers 
     1.0000   1.0000   1.0000   1.0000   1.0000   1.0000   1.0000   1.0000
     1.0000   1.0000   1.0000   1.0000   1.0000

          k = 0.0476 0.5774 0.0000 ( 14714 PWs)   bands (ev):

   -61.8532 -36.2654 -36.0153 -35.9452 -13.3706 -13.2330  -7.0851  -6.1389
    -5.3246  -4.3919  -3.0755  -2.3103  -1.7101

     occupation numbers 
     1.0000   1.0000   1.0000   1.0000   1.0000   1.0000   1.0000   1.0000
     1.0000   1.0000   1.0000   1.0000   1.0000

          k = 0.0952 0.1650 0.0000 ( 14827 PWs)   bands (ev):

   -61.8873 -36.0822 -35.9456 -35.8674 -14.9848 -13.8649  -6.5156  -4.5666
    -4.0861  -3.3955  -3.3925  -2.0924  -1.4907

     occupation numbers 
     1.0000   1.0000   1.0000   1.0000   1.0000   1.0000   1.0000   1.0000
     1.0000   1.0000   1.0000   1.0000   1.0000

          k = 0.0952 0.2199 0.0000 ( 14813 PWs)   bands (ev):

   -61.8817 -36.0714 -35.9963 -35.8824 -14.7640 -13.7751  -6.3462  -4.8346
    -4.3838  -3.7495  -3.2140  -2.0968  -1.6875

     occupation numbers 
     1.0000   1.0000   1.0000   1.0000   1.0000   1.0000   1.0000   1.0000
     1.0000   1.0000   1.0000   1.0000   1.0000

          k = 0.0952 0.2749 0.0000 ( 14793 PWs)   bands (ev):

   -61.8755 -36.0592 -36.0526 -35.8995 -14.5015 -13.6687  -6.2535  -5.0175
    -4.7361  -4.0378  -3.0514  -2.2129  -1.9053

     occupation numbers 
     1.0000   1.0000   1.0000   1.0000   1.0000   1.0000   1.0000   1.0000
     1.0000   1.0000   1.0000   1.0000   1.0000

          k = 0.0952 0.3299 0.0000 ( 14799 PWs)   bands (ev):

   -61.8692 -36.1097 -36.0467 -35.9171 -14.2148 -13.5533  -6.3196  -5.1315
    -5.0615  -4.2240  -2.9652  -2.4028  -2.0323

     occupation numbers 
     1.0000   1.0000   1.0000   1.0000   1.0000   1.0000   1.0000   1.0000
     1.0000   1.0000   1.0000   1.0000   1.0000

          k = 0.0952 0.3849 0.0000 ( 14771 PWs)   bands (ev):

   -61.8632 -36.1625 -36.0350 -35.9334 -13.9262 -13.4386  -6.5030  -5.5164
    -5.0579  -4.3304  -2.9406  -2.6170  -2.0035

     occupation numbers 
     1.0000   1.0000   1.0000   1.0000   1.0000   1.0000   1.0000   1.0000
     1.0000   1.0000   1.0000   1.0000   1.0000

          k = 0.0952 0.4399 0.0000 ( 14747 PWs)   bands (ev):

   -61.8582 -36.2066 -36.0252 -35.9471 -13.6643 -13.3362  -6.7089  -5.8434
    -5.1124  -4.3829  -2.8874  -2.8152  -1.8774

     occupation numbers 
     1.0000   1.0000   1.0000   1.0000   1.0000   1.0000   1.0000   1.0000
     1.0000   1.0000   1.0000   1.0000   1.0000

          k = 0.0952 0.4949 0.0000 ( 14735 PWs)   bands (ev):

   -61.8546 -36.2381 -36.0181 -35.9570 -13.4616 -13.2585  -6.8770  -6.0800
    -5.2084  -4.4020  -2.9673  -2.8079  -1.7242

     occupation numbers 
     1.0000   1.0000   1.0000   1.0000   1.0000   1.0000   1.0000   1.0000
     1.0000   1.0000   1.0000   1.0000   1.0000

          k = 0.0952 0.5499 0.0000 ( 14714 PWs)   bands (ev):

   -61.8527 -36.2546 -36.0144 -35.9621 -13.3501 -13.2163  -6.9710  -6.2040
    -5.2777  -4.4055  -3.0504  -2.7557  -1.6144

     occupation numbers 
     1.0000   1.0000   1.0000   1.0000   1.0000   1.0000   1.0000   1.0000
     1.0000   1.0000   1.0000   1.0000   1.0000

          k = 0.1429 0.2474 0.0000 ( 14801 PWs)   bands (ev):

   -61.8761 -36.0604 -36.0437 -35.9013 -14.5287 -13.6792  -6.2383  -4.9981
    -4.6143  -4.1614  -3.1117  -2.1018  -1.8715

     occupation numbers 
     1.0000   1.0000   1.0000   1.0000   1.0000   1.0000   1.0000   1.0000
     1.0000   1.0000   1.0000   1.0000   1.0000

          k = 0.1429 0.3024 0.0000 ( 14798 PWs)   bands (ev):

   -61.8701 -36.0932 -36.0487 -35.9223 -14.2615 -13.5703  -6.2470  -5.0348
    -4.9689  -4.4034  -3.1200  -2.2149  -1.9885

     occupation numbers 
     1.0000   1.0000   1.0000   1.0000   1.0000   1.0000   1.0000   1.0000
     1.0000   1.0000   1.0000   1.0000   1.0000

          k = 0.1429 0.3574 0.0000 ( 14791 PWs)   bands (ev):

   -61.8643 -36.1408 -36.0371 -35.9433 -13.9818 -13.4568  -6.3719  -5.3936
    -4.9874  -4.4868  -3.2293  -2.4085  -1.9830

     occupation numbers 
     1.0000   1.0000   1.0000   1.0000   1.0000   1.0000   1.0000   1.0000
     1.0000   1.0000   1.0000   1.0000   1.0000

          k = 0.1429 0.4124 0.0000 ( 14771 PWs)   bands (ev):

   -61.8590 -36.1824 -36.0269 -35.9622 -13.7144 -13.3490  -6.5370  -5.7814
    -4.9881  -4.4937  -3.3142  -2.6357  -1.8858

     occupation numbers 
     1.0000   1.0000   1.0000   1.0000   1.0000   1.0000   1.0000   1.0000
     1.0000   1.0000   1.0000   1.0000   1.0000

          k = 0.1429 0.4674 0.0000 ( 14749 PWs)   bands (ev):

   -61.8549 -36.2149 -36.0188 -35.9772 -13.4891 -13.2591  -6.6844  -6.0850
    -5.0802  -4.4598  -3.3162  -2.8502  -1.7363

     occupation numbers 
     1.0000   1.0000   1.0000   1.0000   1.0000   1.0000   1.0000   1.0000
     1.0000   1.0000   1.0000   1.0000   1.0000

          k = 0.1429 0.5224 0.0000 ( 14744 PWs)   bands (ev):

   -61.8523 -36.2354 -36.0137 -35.9867 -13.3368 -13.1990  -6.7838  -6.2778
    -5.1888  -4.4159  -3.2859  -3.0079  -1.5873

     occupation numbers 
     1.0000   1.0000   1.0000   1.0000   1.0000   1.0000   1.0000   1.0000
     1.0000   1.0000   1.0000   1.0000   1.0000

          k = 0.1429 0.5774 0.0000 ( 14722 PWs)   bands (ev):

   -61.8514 -36.2425 -36.0119 -35.9900 -13.2827 -13.1778  -6.8188  -6.3440
    -5.2345  -4.3955  -3.2716  -3.0671  -1.5220

     occupation numbers 
     1.0000   1.0000   1.0000   1.0000   1.0000   1.0000   1.0000   1.0000
     1.0000   1.0000   1.0000   1.0000   1.0000

          k = 0.1905 0.3299 0.0000 ( 14781 PWs)   bands (ev):

   -61.8646 -36.1319 -36.0379 -35.9481 -14.0008 -13.4628  -6.3202  -5.3351
    -4.9556  -4.5628  -3.3424  -2.3226  -1.9788

     occupation numbers 
     1.0000   1.0000   1.0000   1.0000   1.0000   1.0000   1.0000   1.0000
     1.0000   1.0000   1.0000   1.0000   1.0000

          k = 0.1905 0.3849 0.0000 ( 14753 PWs)   bands (ev):

   -61.8595 -36.1661 -36.0278 -35.9740 -13.7408 -13.3552  -6.4254  -5.7396
    -4.8777  -4.5749  -3.6042  -2.5145  -1.9012

     occupation numbers 
     1.0000   1.0000   1.0000   1.0000   1.0000   1.0000   1.0000   1.0000
     1.0000   1.0000   1.0000   1.0000   1.0000

          k = 0.1905 0.4399 0.0000 ( 14749 PWs)   bands (ev):

   -61.8552 -36.1935 -36.0193 -35.9968 -13.5075 -13.2584  -6.5167  -6.0889
    -4.9125  -4.5152  -3.7715  -2.7442  -1.7649

     occupation numbers 
     1.0000   1.0000   1.0000   1.0000   1.0000   1.0000   1.0000   1.0000
     1.0000   1.0000   1.0000   1.0000   1.0000

          k = 0.1905 0.4949 0.0000 ( 14736 PWs)   bands (ev):

   -61.8520 -36.2125 -36.0138 -36.0131 -13.3294 -13.1845  -6.5737  -6.3411
    -5.0502  -4.4262  -3.8194  -2.9579  -1.5928

     occupation numbers 
     1.0000   1.0000   1.0000   1.0000   1.0000   1.0000   1.0000   1.0000
     1.0000   1.0000   1.0000   1.0000   1.0000

          k = 0.1905 0.5499 0.0000 ( 14754 PWs)   bands (ev):

   -61.8504 -36.2223 -36.0229 -36.0099 -13.2324 -13.1443  -6.5973  -6.4731
    -5.1640  -4.3564  -3.8214  -3.0935  -1.4618

     occupation numbers 
     1.0000   1.0000   1.0000   1.0000   1.0000   1.0000   1.0000   1.0000
     1.0000   1.0000   1.0000   1.0000   1.0000

          k = 0.2381 0.4124 0.0000 ( 14762 PWs)   bands (ev):

   -61.8552 -36.1842 -36.0194 -36.0055 -13.5140 -13.2580  -6.4487  -6.0901
    -4.8024  -4.5377  -3.9905  -2.7012  -1.7783

     occupation numbers 
     1.0000   1.0000   1.0000   1.0000   1.0000   1.0000   1.0000   1.0000
     1.0000   1.0000   1.0000   1.0000   1.0000

          k = 0.2381 0.4674 0.0000 ( 14739 PWs)   bands (ev):

   -61.8519 -36.1950 -36.0337 -36.0129 -13.3263 -13.1763  -6.4265  -6.3773
    -4.8652  -4.4337  -4.2474  -2.9227  -1.6031

     occupation numbers 
     1.0000   1.0000   1.0000   1.0000   1.0000   1.0000   1.0000   1.0000
     1.0000   1.0000   1.0000   1.0000   1.0000

          k = 0.2381 0.5224 0.0000 ( 14764 PWs)   bands (ev):

   -61.8498 -36.1997 -36.0537 -36.0087 -13.2016 -13.1213  -6.5632  -6.3719
    -5.0555  -4.3196  -4.3169  -3.1162  -1.4223

     occupation numbers 
     1.0000   1.0000   1.0000   1.0000   1.0000   1.0000   1.0000   1.0000
     1.0000   1.0000   1.0000   1.0000   1.0000

          k = 0.2381 0.5774 0.0000 ( 14776 PWs)   bands (ev):

   -61.8490 -36.2009 -36.0610 -36.0072 -13.1578 -13.1018  -6.6274  -6.3392
    -5.1548  -4.3279  -4.2614  -3.1985  -1.3401

     occupation numbers 
     1.0000   1.0000   1.0000   1.0000   1.0000   1.0000   1.0000   1.0000
     1.0000   1.0000   1.0000   1.0000   1.0000

          k = 0.2857 0.4949 0.0000 ( 14730 PWs)   bands (ev):

   -61.8495 -36.1882 -36.0680 -36.0082 -13.1913 -13.1131  -6.5955  -6.2679
    -4.9442  -4.5909  -4.3007  -3.1249  -1.4077

     occupation numbers 
     1.0000   1.0000   1.0000   1.0000   1.0000   1.0000   1.0000   1.0000
     1.0000   1.0000   1.0000   1.0000   1.0000

          k = 0.2857 0.5499 0.0000 ( 14738 PWs)   bands (ev):

   -61.8483 -36.1789 -36.0918 -36.0058 -13.1191 -13.0785  -6.7121  -6.0972
    -5.1880  -4.6627  -4.1862  -3.2762  -1.2558

     occupation numbers 
     1.0000   1.0000   1.0000   1.0000   1.0000   1.0000   1.0000   1.0000
     1.0000   1.0000   1.0000   1.0000   1.0000

          k = 0.3333 0.5774 0.0000 ( 14760 PWs)   bands (ev):

   -61.8478 -36.1632 -36.1135 -36.0048 -13.0906 -13.0634  -6.7642  -5.8976
    -5.3737  -4.7467  -4.1206  -3.3517  -1.1801

     occupation numbers 
     1.0000   1.0000   1.0000   1.0000   1.0000   1.0000   1.0000   1.0000
     1.0000   1.0000   1.0000   1.0000   1.0000

     highest occupied level (ev):    -1.1801

!    total energy              =    -184.83183132 Ry
     estimated scf accuracy    <          1.1E-16 Ry

     convergence has been achieved in  31 iterations

     Forces acting on atoms (cartesian axes, Ry/au):

     atom    1 type  1   force =     0.00000000   -0.00000000    0.00000000
     atom    2 type  2   force =     0.00000000    0.00000000    0.00013958
     atom    3 type  2   force =     0.00000000    0.00000000   -0.00013958
     The non-local contrib.  to forces
     atom    1 type  1   force =     0.00000000    0.00000000    0.00000000
     atom    2 type  2   force =     0.00000000    0.00000000   -0.25579248
     atom    3 type  2   force =     0.00000000   -0.00000000    0.25579248
     The ionic contribution  to forces
     atom    1 type  1   force =     0.00000001    0.00000097    0.00000000
     atom    2 type  2   force =    -0.00000000   -0.00000048   37.43259772
     atom    3 type  2   force =    -0.00000000   -0.00000048  -37.43259772
     The local contribution  to forces
     atom    1 type  1   force =     0.00000000    0.00002380    0.00000000
     atom    2 type  2   force =    -0.00000001    0.00000001  -37.18084314
     atom    3 type  2   force =    -0.00000001    0.00000001   37.18084314
     The core correction contribution to forces
     atom    1 type  1   force =    -0.00000000   -0.00000040   -0.00000000
     atom    2 type  2   force =     0.00000000   -0.00000000    0.00417747
     atom    3 type  2   force =     0.00000000   -0.00000000   -0.00417747
     The Hubbard contrib.    to forces
     atom    1 type  1   force =     0.00000000    0.00000000    0.00000000
     atom    2 type  2   force =     0.00000000    0.00000000    0.00000000
     atom    3 type  2   force =     0.00000000    0.00000000    0.00000000
     The SCF correction term to forces
     atom    1 type  1   force =     0.00000000    0.00000000    0.00000000
     atom    2 type  2   force =    -0.00000000   -0.00000000    0.00000002
     atom    3 type  2   force =    -0.00000000   -0.00000000   -0.00000002

     Total force =     0.000197     Total SCF correction =     0.000000

     Entering Dynamics:    iteration =     5

     <vel(dt)|acc(dt)> =   1.00000000

ATOMIC_POSITIONS (crystal)
Mo               0.3333333000        0.6666666000        0.5000000000    0   0   0
S                0.6666666670        0.3333333330        0.5735937911    0   0   1
S                0.6666666670        0.3333333330        0.4264062089    0   0   1



     Writing config-only to output data dir ./tmp/MoS2.save/ :
     XML data file
     NEW-OLD atomic charge density approx. for the potential

     total cpu time spent up to now is      251.6 secs

     per-process dynamical memory:    73.2 Mb

     Self-consistent Calculation

     iteration #  1     ecut=    80.00 Ry     beta= 0.20
     Davidson diagonalization with overlap

---- Real-time Memory Report at c_bands before calling an iterative solver
            93 MiB given to the printing process from OS
            71 MiB allocation reported by mallinfo(arena+hblkhd)
        243601 MiB available memory on the node where the printing process lives
------------------
     ethr =  1.00E-06,  avg # of iterations =  1.0

     Threshold (ethr) on eigenvalues was too large:
     Diagonalizing with lowered threshold

     Davidson diagonalization with overlap

---- Real-time Memory Report at c_bands before calling an iterative solver
            93 MiB given to the printing process from OS
            71 MiB allocation reported by mallinfo(arena+hblkhd)
        243600 MiB available memory on the node where the printing process lives
------------------
     ethr =  8.83E-10,  avg # of iterations =  4.9

     total cpu time spent up to now is      254.0 secs

     total energy              =    -184.83183136 Ry
     estimated scf accuracy    <          7.4E-09 Ry

     iteration #  2     ecut=    80.00 Ry     beta= 0.20
     Davidson diagonalization with overlap

---- Real-time Memory Report at c_bands before calling an iterative solver
            93 MiB given to the printing process from OS
            71 MiB allocation reported by mallinfo(arena+hblkhd)
        243600 MiB available memory on the node where the printing process lives
------------------
     ethr =  2.84E-11,  avg # of iterations =  5.8

     total cpu time spent up to now is      255.6 secs

     total energy              =    -184.83183137 Ry
     estimated scf accuracy    <       0.00000001 Ry

     iteration #  3     ecut=    80.00 Ry     beta= 0.20
     Davidson diagonalization with overlap

---- Real-time Memory Report at c_bands before calling an iterative solver
            93 MiB given to the printing process from OS
            71 MiB allocation reported by mallinfo(arena+hblkhd)
        243600 MiB available memory on the node where the printing process lives
------------------
     ethr =  2.84E-11,  avg # of iterations =  1.0

     total cpu time spent up to now is      256.5 secs

     total energy              =    -184.83183136 Ry
     estimated scf accuracy    <          9.7E-09 Ry

     iteration #  4     ecut=    80.00 Ry     beta= 0.20
     Davidson diagonalization with overlap

---- Real-time Memory Report at c_bands before calling an iterative solver
            93 MiB given to the printing process from OS
            71 MiB allocation reported by mallinfo(arena+hblkhd)
        243600 MiB available memory on the node where the printing process lives
------------------
     ethr =  2.84E-11,  avg # of iterations =  5.6

     total cpu time spent up to now is      258.3 secs

     total energy              =    -184.83183137 Ry
     estimated scf accuracy    <       0.00000005 Ry

     iteration #  5     ecut=    80.00 Ry     beta= 0.20
     Davidson diagonalization with overlap

---- Real-time Memory Report at c_bands before calling an iterative solver
            93 MiB given to the printing process from OS
            71 MiB allocation reported by mallinfo(arena+hblkhd)
        243600 MiB available memory on the node where the printing process lives
------------------
     ethr =  2.84E-11,  avg # of iterations =  1.8

     total cpu time spent up to now is      259.4 secs

     total energy              =    -184.83183136 Ry
     estimated scf accuracy    <       0.00000003 Ry

     iteration #  6     ecut=    80.00 Ry     beta= 0.20
     Davidson diagonalization with overlap

---- Real-time Memory Report at c_bands before calling an iterative solver
            93 MiB given to the printing process from OS
            71 MiB allocation reported by mallinfo(arena+hblkhd)
        243600 MiB available memory on the node where the printing process lives
------------------
     ethr =  2.84E-11,  avg # of iterations =  6.0

     total cpu time spent up to now is      261.0 secs

     total energy              =    -184.83183136 Ry
     estimated scf accuracy    <          4.3E-09 Ry

     iteration #  7     ecut=    80.00 Ry     beta= 0.20
     Davidson diagonalization with overlap

---- Real-time Memory Report at c_bands before calling an iterative solver
            93 MiB given to the printing process from OS
            71 MiB allocation reported by mallinfo(arena+hblkhd)
        243599 MiB available memory on the node where the printing process lives
------------------
     ethr =  1.64E-11,  avg # of iterations =  2.4

     total cpu time spent up to now is      262.1 secs

     total energy              =    -184.83183136 Ry
     estimated scf accuracy    <          7.8E-10 Ry

     iteration #  8     ecut=    80.00 Ry     beta= 0.20
     Davidson diagonalization with overlap

---- Real-time Memory Report at c_bands before calling an iterative solver
            93 MiB given to the printing process from OS
            71 MiB allocation reported by mallinfo(arena+hblkhd)
        243593 MiB available memory on the node where the printing process lives
------------------
     ethr =  3.01E-12,  avg # of iterations =  6.0

     total cpu time spent up to now is      263.7 secs

     total energy              =    -184.83183136 Ry
     estimated scf accuracy    <          1.7E-09 Ry

     iteration #  9     ecut=    80.00 Ry     beta= 0.20
     Davidson diagonalization with overlap

---- Real-time Memory Report at c_bands before calling an iterative solver
            93 MiB given to the printing process from OS
            71 MiB allocation reported by mallinfo(arena+hblkhd)
        243593 MiB available memory on the node where the printing process lives
------------------
     ethr =  3.01E-12,  avg # of iterations =  1.5

     total cpu time spent up to now is      264.7 secs

     total energy              =    -184.83183136 Ry
     estimated scf accuracy    <          8.9E-10 Ry

     iteration # 10     ecut=    80.00 Ry     beta= 0.20
     Davidson diagonalization with overlap

---- Real-time Memory Report at c_bands before calling an iterative solver
            93 MiB given to the printing process from OS
            71 MiB allocation reported by mallinfo(arena+hblkhd)
        243593 MiB available memory on the node where the printing process lives
------------------
     ethr =  3.01E-12,  avg # of iterations =  4.3

     total cpu time spent up to now is      266.1 secs

     total energy              =    -184.83183136 Ry
     estimated scf accuracy    <          1.1E-10 Ry

     iteration # 11     ecut=    80.00 Ry     beta= 0.20
     Davidson diagonalization with overlap

---- Real-time Memory Report at c_bands before calling an iterative solver
            93 MiB given to the printing process from OS
            71 MiB allocation reported by mallinfo(arena+hblkhd)
        243595 MiB available memory on the node where the printing process lives
------------------
     ethr =  4.40E-13,  avg # of iterations =  4.5

     total cpu time spent up to now is      267.5 secs

     total energy              =    -184.83183136 Ry
     estimated scf accuracy    <          4.1E-10 Ry

     iteration # 12     ecut=    80.00 Ry     beta= 0.20
     Davidson diagonalization with overlap

---- Real-time Memory Report at c_bands before calling an iterative solver
            93 MiB given to the printing process from OS
            71 MiB allocation reported by mallinfo(arena+hblkhd)
        243595 MiB available memory on the node where the printing process lives
------------------
     ethr =  4.40E-13,  avg # of iterations =  1.6

     total cpu time spent up to now is      268.4 secs

     total energy              =    -184.83183136 Ry
     estimated scf accuracy    <          2.6E-10 Ry

     iteration # 13     ecut=    80.00 Ry     beta= 0.20
     Davidson diagonalization with overlap

---- Real-time Memory Report at c_bands before calling an iterative solver
            93 MiB given to the printing process from OS
            71 MiB allocation reported by mallinfo(arena+hblkhd)
        243595 MiB available memory on the node where the printing process lives
------------------
     ethr =  4.40E-13,  avg # of iterations =  3.4

     total cpu time spent up to now is      269.7 secs

     total energy              =    -184.83183136 Ry
     estimated scf accuracy    <          2.1E-11 Ry

     iteration # 14     ecut=    80.00 Ry     beta= 0.20
     Davidson diagonalization with overlap

---- Real-time Memory Report at c_bands before calling an iterative solver
            93 MiB given to the printing process from OS
            71 MiB allocation reported by mallinfo(arena+hblkhd)
        243595 MiB available memory on the node where the printing process lives
------------------
     ethr =  1.00E-13,  avg # of iterations =  4.2

     total cpu time spent up to now is      270.9 secs

     total energy              =    -184.83183136 Ry
     estimated scf accuracy    <          9.0E-13 Ry

     iteration # 15     ecut=    80.00 Ry     beta= 0.20
     Davidson diagonalization with overlap

---- Real-time Memory Report at c_bands before calling an iterative solver
            93 MiB given to the printing process from OS
            71 MiB allocation reported by mallinfo(arena+hblkhd)
        243596 MiB available memory on the node where the printing process lives
------------------
     ethr =  1.00E-13,  avg # of iterations =  1.0

     total cpu time spent up to now is      271.9 secs

     total energy              =    -184.83183136 Ry
     estimated scf accuracy    <          5.5E-13 Ry

     iteration # 16     ecut=    80.00 Ry     beta= 0.20
     Davidson diagonalization with overlap

---- Real-time Memory Report at c_bands before calling an iterative solver
            93 MiB given to the printing process from OS
            71 MiB allocation reported by mallinfo(arena+hblkhd)
        243596 MiB available memory on the node where the printing process lives
------------------
     ethr =  1.00E-13,  avg # of iterations =  1.0

     total cpu time spent up to now is      272.8 secs

     total energy              =    -184.83183136 Ry
     estimated scf accuracy    <          6.2E-13 Ry

     iteration # 17     ecut=    80.00 Ry     beta= 0.20
     Davidson diagonalization with overlap

---- Real-time Memory Report at c_bands before calling an iterative solver
            93 MiB given to the printing process from OS
            71 MiB allocation reported by mallinfo(arena+hblkhd)
        243596 MiB available memory on the node where the printing process lives
------------------
     ethr =  1.00E-13,  avg # of iterations =  1.0

     total cpu time spent up to now is      273.8 secs

     total energy              =    -184.83183136 Ry
     estimated scf accuracy    <          5.5E-14 Ry

     iteration # 18     ecut=    80.00 Ry     beta= 0.20
     Davidson diagonalization with overlap

---- Real-time Memory Report at c_bands before calling an iterative solver
            93 MiB given to the printing process from OS
            71 MiB allocation reported by mallinfo(arena+hblkhd)
        243596 MiB available memory on the node where the printing process lives
------------------
     ethr =  1.00E-13,  avg # of iterations =  1.0

     total cpu time spent up to now is      274.7 secs

     total energy              =    -184.83183136 Ry
     estimated scf accuracy    <          4.5E-14 Ry

     iteration # 19     ecut=    80.00 Ry     beta= 0.20
     Davidson diagonalization with overlap

---- Real-time Memory Report at c_bands before calling an iterative solver
            93 MiB given to the printing process from OS
            71 MiB allocation reported by mallinfo(arena+hblkhd)
        243596 MiB available memory on the node where the printing process lives
------------------
     ethr =  1.00E-13,  avg # of iterations =  1.0

     total cpu time spent up to now is      275.7 secs

     total energy              =    -184.83183136 Ry
     estimated scf accuracy    <          1.7E-14 Ry

     iteration # 20     ecut=    80.00 Ry     beta= 0.20
     Davidson diagonalization with overlap

---- Real-time Memory Report at c_bands before calling an iterative solver
            93 MiB given to the printing process from OS
            71 MiB allocation reported by mallinfo(arena+hblkhd)
        243596 MiB available memory on the node where the printing process lives
------------------
     ethr =  1.00E-13,  avg # of iterations =  1.0

     total cpu time spent up to now is      276.6 secs

     total energy              =    -184.83183136 Ry
     estimated scf accuracy    <          6.6E-15 Ry

     iteration # 21     ecut=    80.00 Ry     beta= 0.20
     Davidson diagonalization with overlap

---- Real-time Memory Report at c_bands before calling an iterative solver
            93 MiB given to the printing process from OS
            71 MiB allocation reported by mallinfo(arena+hblkhd)
        243594 MiB available memory on the node where the printing process lives
------------------
     ethr =  1.00E-13,  avg # of iterations =  1.0

     total cpu time spent up to now is      277.6 secs

     total energy              =    -184.83183136 Ry
     estimated scf accuracy    <          1.8E-14 Ry

     iteration # 22     ecut=    80.00 Ry     beta= 0.20
     Davidson diagonalization with overlap

---- Real-time Memory Report at c_bands before calling an iterative solver
            93 MiB given to the printing process from OS
            71 MiB allocation reported by mallinfo(arena+hblkhd)
        243595 MiB available memory on the node where the printing process lives
------------------
     ethr =  1.00E-13,  avg # of iterations =  1.0

     total cpu time spent up to now is      278.5 secs

     total energy              =    -184.83183136 Ry
     estimated scf accuracy    <          4.2E-14 Ry

     iteration # 23     ecut=    80.00 Ry     beta= 0.20
     Davidson diagonalization with overlap

---- Real-time Memory Report at c_bands before calling an iterative solver
            93 MiB given to the printing process from OS
            71 MiB allocation reported by mallinfo(arena+hblkhd)
        243595 MiB available memory on the node where the printing process lives
------------------
     ethr =  1.00E-13,  avg # of iterations =  1.0

     total cpu time spent up to now is      279.5 secs

     total energy              =    -184.83183136 Ry
     estimated scf accuracy    <          2.7E-13 Ry

     iteration # 24     ecut=    80.00 Ry     beta= 0.20
     Davidson diagonalization with overlap

---- Real-time Memory Report at c_bands before calling an iterative solver
            93 MiB given to the printing process from OS
            71 MiB allocation reported by mallinfo(arena+hblkhd)
        243591 MiB available memory on the node where the printing process lives
------------------
     ethr =  1.00E-13,  avg # of iterations =  1.0

     total cpu time spent up to now is      280.4 secs

     total energy              =    -184.83183136 Ry
     estimated scf accuracy    <          2.8E-13 Ry

     iteration # 25     ecut=    80.00 Ry     beta= 0.20
     Davidson diagonalization with overlap

---- Real-time Memory Report at c_bands before calling an iterative solver
            93 MiB given to the printing process from OS
            71 MiB allocation reported by mallinfo(arena+hblkhd)
        243591 MiB available memory on the node where the printing process lives
------------------
     ethr =  1.00E-13,  avg # of iterations =  1.0

     total cpu time spent up to now is      281.4 secs

     total energy              =    -184.83183136 Ry
     estimated scf accuracy    <          5.7E-13 Ry

     iteration # 26     ecut=    80.00 Ry     beta= 0.20
     Davidson diagonalization with overlap

---- Real-time Memory Report at c_bands before calling an iterative solver
            93 MiB given to the printing process from OS
            71 MiB allocation reported by mallinfo(arena+hblkhd)
        243592 MiB available memory on the node where the printing process lives
------------------
     ethr =  1.00E-13,  avg # of iterations =  1.0

     total cpu time spent up to now is      282.4 secs

     total energy              =    -184.83183136 Ry
     estimated scf accuracy    <          6.0E-13 Ry

     iteration # 27     ecut=    80.00 Ry     beta= 0.20
     Davidson diagonalization with overlap

---- Real-time Memory Report at c_bands before calling an iterative solver
            93 MiB given to the printing process from OS
            71 MiB allocation reported by mallinfo(arena+hblkhd)
        243592 MiB available memory on the node where the printing process lives
------------------
     ethr =  1.00E-13,  avg # of iterations =  1.0

     total cpu time spent up to now is      283.3 secs

     total energy              =    -184.83183136 Ry
     estimated scf accuracy    <          2.6E-13 Ry

     iteration # 28     ecut=    80.00 Ry     beta= 0.20
     Davidson diagonalization with overlap

---- Real-time Memory Report at c_bands before calling an iterative solver
            93 MiB given to the printing process from OS
            71 MiB allocation reported by mallinfo(arena+hblkhd)
        243589 MiB available memory on the node where the printing process lives
------------------
     ethr =  1.00E-13,  avg # of iterations =  1.0

     total cpu time spent up to now is      284.3 secs

     total energy              =    -184.83183136 Ry
     estimated scf accuracy    <          2.7E-15 Ry

     iteration # 29     ecut=    80.00 Ry     beta= 0.20
     Davidson diagonalization with overlap

---- Real-time Memory Report at c_bands before calling an iterative solver
            93 MiB given to the printing process from OS
            71 MiB allocation reported by mallinfo(arena+hblkhd)
        243589 MiB available memory on the node where the printing process lives
------------------
     ethr =  1.00E-13,  avg # of iterations =  1.0

     total cpu time spent up to now is      285.2 secs

     End of self-consistent calculation

          k = 0.0000 0.0000 0.0000 ( 14855 PWs)   bands (ev):

   -61.8982 -36.1035 -35.8402 -35.8402 -15.3960 -14.0325  -6.9434  -3.8022
    -3.8022  -3.0139  -2.6456  -2.6456  -1.2397

     occupation numbers 
     1.0000   1.0000   1.0000   1.0000   1.0000   1.0000   1.0000   1.0000
     1.0000   1.0000   1.0000   1.0000   1.0000

          k = 0.0000 0.0550 0.0000 ( 14883 PWs)   bands (ev):

   -61.8972 -36.1015 -35.8500 -35.8424 -15.3600 -14.0179  -6.9024  -3.8840
    -3.7645  -3.2324  -2.7045  -2.4782  -1.2522

     occupation numbers 
     1.0000   1.0000   1.0000   1.0000   1.0000   1.0000   1.0000   1.0000
     1.0000   1.0000   1.0000   1.0000   1.0000

          k = 0.0000 0.1100 0.0000 ( 14863 PWs)   bands (ev):

   -61.8943 -36.0959 -35.8785 -35.8489 -15.2540 -13.9747  -6.7848  -4.1074
    -3.6536  -3.5900  -2.8660  -2.2888  -1.3010

     occupation numbers 
     1.0000   1.0000   1.0000   1.0000   1.0000   1.0000   1.0000   1.0000
     1.0000   1.0000   1.0000   1.0000   1.0000

          k = 0.0000 0.1650 0.0000 ( 14855 PWs)   bands (ev):

   -61.8898 -36.0871 -35.9229 -35.8589 -15.0831 -13.9052  -6.6102  -4.4176
    -3.9724  -3.4775  -3.0945  -2.2207  -1.4149

     occupation numbers 
     1.0000   1.0000   1.0000   1.0000   1.0000   1.0000   1.0000   1.0000
     1.0000   1.0000   1.0000   1.0000   1.0000

          k = 0.0000 0.2199 0.0000 ( 14815 PWs)   bands (ev):

   -61.8840 -36.0758 -35.9791 -35.8717 -14.8566 -13.8133  -6.4219  -4.7419
    -4.3627  -3.3526  -3.2494  -2.2913  -1.6168

     occupation numbers 
     1.0000   1.0000   1.0000   1.0000   1.0000   1.0000   1.0000   1.0000
     1.0000   1.0000   1.0000   1.0000   1.0000

          k = 0.0000 0.2749 0.0000 ( 14799 PWs)   bands (ev):

   -61.8775 -36.0630 -36.0417 -35.8861 -14.5871 -13.7046  -6.3060  -4.9911
    -4.7529  -3.6109  -2.9889  -2.4557  -1.8788

     occupation numbers 
     1.0000   1.0000   1.0000   1.0000   1.0000   1.0000   1.0000   1.0000
     1.0000   1.0000   1.0000   1.0000   1.0000

          k = 0.0000 0.3299 0.0000 ( 14811 PWs)   bands (ev):

   -61.8708 -36.1051 -36.0500 -35.9008 -14.2923 -13.5870  -6.3609  -5.1313
    -5.0956  -3.8486  -2.7215  -2.6479  -2.1080

     occupation numbers 
     1.0000   1.0000   1.0000   1.0000   1.0000   1.0000   1.0000   1.0000
     1.0000   1.0000   1.0000   1.0000   1.0000

          k = 0.0000 0.3849 0.0000 ( 14770 PWs)   bands (ev):

   -61.8646 -36.1637 -36.0378 -35.9144 -13.9948 -13.4704  -6.5608  -5.4791
    -5.1239  -4.0514  -2.8206  -2.4758  -2.2010

     occupation numbers 
     1.0000   1.0000   1.0000   1.0000   1.0000   1.0000   1.0000   1.0000
     1.0000   1.0000   1.0000   1.0000   1.0000

          k = 0.0000 0.4399 0.0000 ( 14722 PWs)   bands (ev):

   -61.8594 -36.2126 -36.0275 -35.9258 -13.7238 -13.3667  -6.7969  -5.7719
    -5.1824  -4.2102  -2.9523  -2.2775  -2.1285

     occupation numbers 
     1.0000   1.0000   1.0000   1.0000   1.0000   1.0000   1.0000   1.0000
     1.0000   1.0000   1.0000   1.0000   1.0000

          k = 0.0000 0.4949 0.0000 ( 14716 PWs)   bands (ev):

   -61.8556 -36.2476 -36.0201 -35.9341 -13.5133 -13.2881  -6.9934  -5.9846
    -5.2683  -4.3190  -3.0380  -2.1426  -1.9698

     occupation numbers 
     1.0000   1.0000   1.0000   1.0000   1.0000   1.0000   1.0000   1.0000
     1.0000   1.0000   1.0000   1.0000   1.0000

          k = 0.0000 0.5499 0.0000 ( 14720 PWs)   bands (ev):

   -61.8536 -36.2658 -36.0162 -35.9384 -13.3970 -13.2456  -7.1043  -6.0967
    -5.3287  -4.3742  -3.0797  -2.0757  -1.8483

     occupation numbers 
     1.0000   1.0000   1.0000   1.0000   1.0000   1.0000   1.0000   1.0000
     1.0000   1.0000   1.0000   1.0000   1.0000

          k = 0.0476 0.0825 0.0000 ( 14875 PWs)   bands (ev):

   -61.8952 -36.0978 -35.8690 -35.8469 -15.2890 -13.9890  -6.8230  -4.0359
    -3.6908  -3.4857  -2.8306  -2.3176  -1.2828

     occupation numbers 
     1.0000   1.0000   1.0000   1.0000   1.0000   1.0000   1.0000   1.0000
     1.0000   1.0000   1.0000   1.0000   1.0000

          k = 0.0476 0.1375 0.0000 ( 14858 PWs)   bands (ev):

   -61.8915 -36.0905 -35.9050 -35.8556 -15.1505 -13.9326  -6.6758  -4.3005
    -3.8180  -3.5497  -3.0614  -2.1855  -1.3640

     occupation numbers 
     1.0000   1.0000   1.0000   1.0000   1.0000   1.0000   1.0000   1.0000
     1.0000   1.0000   1.0000   1.0000   1.0000

          k = 0.0476 0.1925 0.0000 ( 14822 PWs)   bands (ev):

   -61.8864 -36.0804 -35.9546 -35.8677 -14.9517 -13.8517  -6.4902  -4.6145
    -4.1773  -3.3538  -3.3404  -2.1714  -1.5232

     occupation numbers 
     1.0000   1.0000   1.0000   1.0000   1.0000   1.0000   1.0000   1.0000
     1.0000   1.0000   1.0000   1.0000   1.0000

          k = 0.0476 0.2474 0.0000 ( 14793 PWs)   bands (ev):

   -61.8802 -36.0684 -36.0132 -35.8821 -14.7034 -13.7511  -6.3290  -4.8980
    -4.5539  -3.6188  -3.1242  -2.2796  -1.7580

     occupation numbers 
     1.0000   1.0000   1.0000   1.0000   1.0000   1.0000   1.0000   1.0000
     1.0000   1.0000   1.0000   1.0000   1.0000

          k = 0.0476 0.3024 0.0000 ( 14812 PWs)   bands (ev):

   -61.8737 -36.0753 -36.0555 -35.8975 -14.4206 -13.6374  -6.2958  -5.0601
    -4.9387  -3.8635  -2.8940  -2.4612  -1.9974

     occupation numbers 
     1.0000   1.0000   1.0000   1.0000   1.0000   1.0000   1.0000   1.0000
     1.0000   1.0000   1.0000   1.0000   1.0000

          k = 0.0476 0.3574 0.0000 ( 14790 PWs)   bands (ev):

   -61.8672 -36.1355 -36.0429 -35.9124 -14.1234 -13.5194  -6.4358  -5.3121
    -5.0972  -4.0606  -2.7088  -2.6594  -2.1175

     occupation numbers 
     1.0000   1.0000   1.0000   1.0000   1.0000   1.0000   1.0000   1.0000
     1.0000   1.0000   1.0000   1.0000   1.0000

          k = 0.0476 0.4124 0.0000 ( 14759 PWs)   bands (ev):

   -61.8615 -36.1886 -36.0316 -35.9257 -13.8373 -13.4081  -6.6602  -5.6457
    -5.1294  -4.2087  -2.8349  -2.5755  -2.0591

     occupation numbers 
     1.0000   1.0000   1.0000   1.0000   1.0000   1.0000   1.0000   1.0000
     1.0000   1.0000   1.0000   1.0000   1.0000

          k = 0.0476 0.4674 0.0000 ( 14731 PWs)   bands (ev):

   -61.8570 -36.2299 -36.0228 -35.9361 -13.5943 -13.3156  -6.8765  -5.9100
    -5.2084  -4.3110  -2.9675  -2.4470  -1.9111

     occupation numbers 
     1.0000   1.0000   1.0000   1.0000   1.0000   1.0000   1.0000   1.0000
     1.0000   1.0000   1.0000   1.0000   1.0000

          k = 0.0476 0.5224 0.0000 ( 14718 PWs)   bands (ev):

   -61.8541 -36.2562 -36.0171 -35.9427 -13.4288 -13.2541  -7.0292  -6.0799
    -5.2903  -4.3710  -3.0486  -2.3461  -1.7693

     occupation numbers 
     1.0000   1.0000   1.0000   1.0000   1.0000   1.0000   1.0000   1.0000
     1.0000   1.0000   1.0000   1.0000   1.0000

          k = 0.0476 0.5774 0.0000 ( 14714 PWs)   bands (ev):

   -61.8531 -36.2652 -36.0152 -35.9450 -13.3697 -13.2324  -7.0844  -6.1386
    -5.3238  -4.3908  -3.0758  -2.3097  -1.7097

     occupation numbers 
     1.0000   1.0000   1.0000   1.0000   1.0000   1.0000   1.0000   1.0000
     1.0000   1.0000   1.0000   1.0000   1.0000

          k = 0.0952 0.1650 0.0000 ( 14827 PWs)   bands (ev):

   -61.8872 -36.0820 -35.9454 -35.8672 -14.9840 -13.8647  -6.5147  -4.5653
    -4.0856  -3.3941  -3.3914  -2.0923  -1.4911

     occupation numbers 
     1.0000   1.0000   1.0000   1.0000   1.0000   1.0000   1.0000   1.0000
     1.0000   1.0000   1.0000   1.0000   1.0000

          k = 0.0952 0.2199 0.0000 ( 14813 PWs)   bands (ev):

   -61.8817 -36.0713 -35.9961 -35.8823 -14.7631 -13.7749  -6.3452  -4.8335
    -4.3832  -3.7484  -3.2127  -2.0969  -1.6877

     occupation numbers 
     1.0000   1.0000   1.0000   1.0000   1.0000   1.0000   1.0000   1.0000
     1.0000   1.0000   1.0000   1.0000   1.0000

          k = 0.0952 0.2749 0.0000 ( 14793 PWs)   bands (ev):

   -61.8755 -36.0591 -36.0524 -35.8994 -14.5007 -13.6684  -6.2524  -5.0167
    -4.7354  -4.0369  -3.0502  -2.2131  -1.9053

     occupation numbers 
     1.0000   1.0000   1.0000   1.0000   1.0000   1.0000   1.0000   1.0000
     1.0000   1.0000   1.0000   1.0000   1.0000

          k = 0.0952 0.3299 0.0000 ( 14799 PWs)   bands (ev):

   -61.8691 -36.1095 -36.0466 -35.9169 -14.2139 -13.5530  -6.3184  -5.1309
    -5.0608  -4.2231  -2.9642  -2.4030  -2.0319

     occupation numbers 
     1.0000   1.0000   1.0000   1.0000   1.0000   1.0000   1.0000   1.0000
     1.0000   1.0000   1.0000   1.0000   1.0000

          k = 0.0952 0.3849 0.0000 ( 14771 PWs)   bands (ev):

   -61.8632 -36.1623 -36.0349 -35.9332 -13.9254 -13.4382  -6.5018  -5.5157
    -5.0574  -4.3296  -2.9399  -2.6173  -2.0029

     occupation numbers 
     1.0000   1.0000   1.0000   1.0000   1.0000   1.0000   1.0000   1.0000
     1.0000   1.0000   1.0000   1.0000   1.0000

          k = 0.0952 0.4399 0.0000 ( 14747 PWs)   bands (ev):

   -61.8582 -36.2063 -36.0251 -35.9469 -13.6634 -13.3357  -6.7079  -5.8428
    -5.1118  -4.3821  -2.8868  -2.8155  -1.8768

     occupation numbers 
     1.0000   1.0000   1.0000   1.0000   1.0000   1.0000   1.0000   1.0000
     1.0000   1.0000   1.0000   1.0000   1.0000

          k = 0.0952 0.4949 0.0000 ( 14735 PWs)   bands (ev):

   -61.8545 -36.2379 -36.0180 -35.9568 -13.4608 -13.2579  -6.8762  -6.0794
    -5.2077  -4.4011  -2.9676  -2.8073  -1.7237

     occupation numbers 
     1.0000   1.0000   1.0000   1.0000   1.0000   1.0000   1.0000   1.0000
     1.0000   1.0000   1.0000   1.0000   1.0000

          k = 0.0952 0.5499 0.0000 ( 14714 PWs)   bands (ev):

   -61.8527 -36.2543 -36.0143 -35.9619 -13.3492 -13.2158  -6.9703  -6.2034
    -5.2770  -4.4046  -3.0507  -2.7552  -1.6140

     occupation numbers 
     1.0000   1.0000   1.0000   1.0000   1.0000   1.0000   1.0000   1.0000
     1.0000   1.0000   1.0000   1.0000   1.0000

          k = 0.1429 0.2474 0.0000 ( 14801 PWs)   bands (ev):

   -61.8761 -36.0603 -36.0435 -35.9011 -14.5279 -13.6789  -6.2371  -4.9972
    -4.6137  -4.1606  -3.1105  -2.1020  -1.8715

     occupation numbers 
     1.0000   1.0000   1.0000   1.0000   1.0000   1.0000   1.0000   1.0000
     1.0000   1.0000   1.0000   1.0000   1.0000

          k = 0.1429 0.3024 0.0000 ( 14798 PWs)   bands (ev):

   -61.8701 -36.0930 -36.0485 -35.9221 -14.2606 -13.5699  -6.2458  -5.0341
    -4.9681  -4.4027  -3.1191  -2.2151  -1.9882

     occupation numbers 
     1.0000   1.0000   1.0000   1.0000   1.0000   1.0000   1.0000   1.0000
     1.0000   1.0000   1.0000   1.0000   1.0000

          k = 0.1429 0.3574 0.0000 ( 14791 PWs)   bands (ev):

   -61.8642 -36.1405 -36.0370 -35.9431 -13.9810 -13.4563  -6.3708  -5.3928
    -4.9869  -4.4862  -3.2285  -2.4087  -1.9824

     occupation numbers 
     1.0000   1.0000   1.0000   1.0000   1.0000   1.0000   1.0000   1.0000
     1.0000   1.0000   1.0000   1.0000   1.0000

          k = 0.1429 0.4124 0.0000 ( 14771 PWs)   bands (ev):

   -61.8590 -36.1822 -36.0268 -35.9621 -13.7136 -13.3485  -6.5359  -5.7806
    -4.9876  -4.4931  -3.3136  -2.6359  -1.8852

     occupation numbers 
     1.0000   1.0000   1.0000   1.0000   1.0000   1.0000   1.0000   1.0000
     1.0000   1.0000   1.0000   1.0000   1.0000

          k = 0.1429 0.4674 0.0000 ( 14749 PWs)   bands (ev):

   -61.8549 -36.2146 -36.0187 -35.9770 -13.4882 -13.2586  -6.6835  -6.0842
    -5.0795  -4.4593  -3.3156  -2.8505  -1.7358

     occupation numbers 
     1.0000   1.0000   1.0000   1.0000   1.0000   1.0000   1.0000   1.0000
     1.0000   1.0000   1.0000   1.0000   1.0000

          k = 0.1429 0.5224 0.0000 ( 14744 PWs)   bands (ev):

   -61.8523 -36.2352 -36.0136 -35.9865 -13.3359 -13.1984  -6.7831  -6.2771
    -5.1881  -4.4153  -3.2854  -3.0083  -1.5868

     occupation numbers 
     1.0000   1.0000   1.0000   1.0000   1.0000   1.0000   1.0000   1.0000
     1.0000   1.0000   1.0000   1.0000   1.0000

          k = 0.1429 0.5774 0.0000 ( 14722 PWs)   bands (ev):

   -61.8514 -36.2422 -36.0118 -35.9898 -13.2818 -13.1772  -6.8181  -6.3433
    -5.2337  -4.3949  -3.2711  -3.0674  -1.5215

     occupation numbers 
     1.0000   1.0000   1.0000   1.0000   1.0000   1.0000   1.0000   1.0000
     1.0000   1.0000   1.0000   1.0000   1.0000

          k = 0.1905 0.3299 0.0000 ( 14781 PWs)   bands (ev):

   -61.8646 -36.1317 -36.0377 -35.9479 -13.9999 -13.4624  -6.3191  -5.3342
    -4.9550  -4.5623  -3.3417  -2.3228  -1.9783

     occupation numbers 
     1.0000   1.0000   1.0000   1.0000   1.0000   1.0000   1.0000   1.0000
     1.0000   1.0000   1.0000   1.0000   1.0000

          k = 0.1905 0.3849 0.0000 ( 14753 PWs)   bands (ev):

   -61.8594 -36.1659 -36.0276 -35.9738 -13.7399 -13.3547  -6.4243  -5.7386
    -4.8772  -4.5745  -3.6036  -2.5147  -1.9006

     occupation numbers 
     1.0000   1.0000   1.0000   1.0000   1.0000   1.0000   1.0000   1.0000
     1.0000   1.0000   1.0000   1.0000   1.0000

          k = 0.1905 0.4399 0.0000 ( 14749 PWs)   bands (ev):

   -61.8551 -36.1932 -36.0191 -35.9966 -13.5067 -13.2579  -6.5157  -6.0880
    -4.9120  -4.5148  -3.7709  -2.7445  -1.7643

     occupation numbers 
     1.0000   1.0000   1.0000   1.0000   1.0000   1.0000   1.0000   1.0000
     1.0000   1.0000   1.0000   1.0000   1.0000

          k = 0.1905 0.4949 0.0000 ( 14736 PWs)   bands (ev):

   -61.8520 -36.2123 -36.0136 -36.0130 -13.3285 -13.1839  -6.5729  -6.3402
    -5.0496  -4.4258  -3.8189  -2.9582  -1.5923

     occupation numbers 
     1.0000   1.0000   1.0000   1.0000   1.0000   1.0000   1.0000   1.0000
     1.0000   1.0000   1.0000   1.0000   1.0000

          k = 0.1905 0.5499 0.0000 ( 14754 PWs)   bands (ev):

   -61.8504 -36.2221 -36.0227 -36.0098 -13.2315 -13.1437  -6.5966  -6.4722
    -5.1633  -4.3561  -3.8209  -3.0939  -1.4613

     occupation numbers 
     1.0000   1.0000   1.0000   1.0000   1.0000   1.0000   1.0000   1.0000
     1.0000   1.0000   1.0000   1.0000   1.0000

          k = 0.2381 0.4124 0.0000 ( 14762 PWs)   bands (ev):

   -61.8552 -36.1840 -36.0193 -36.0053 -13.5132 -13.2575  -6.4478  -6.0891
    -4.8018  -4.5374  -3.9898  -2.7015  -1.7777

     occupation numbers 
     1.0000   1.0000   1.0000   1.0000   1.0000   1.0000   1.0000   1.0000
     1.0000   1.0000   1.0000   1.0000   1.0000

          k = 0.2381 0.4674 0.0000 ( 14739 PWs)   bands (ev):

   -61.8518 -36.1947 -36.0334 -36.0127 -13.3254 -13.1757  -6.4256  -6.3763
    -4.8646  -4.4334  -4.2468  -2.9230  -1.6025

     occupation numbers 
     1.0000   1.0000   1.0000   1.0000   1.0000   1.0000   1.0000   1.0000
     1.0000   1.0000   1.0000   1.0000   1.0000

          k = 0.2381 0.5224 0.0000 ( 14764 PWs)   bands (ev):

   -61.8497 -36.1995 -36.0535 -36.0086 -13.2007 -13.1207  -6.5623  -6.3712
    -5.0548  -4.3190  -4.3167  -3.1165  -1.4218

     occupation numbers 
     1.0000   1.0000   1.0000   1.0000   1.0000   1.0000   1.0000   1.0000
     1.0000   1.0000   1.0000   1.0000   1.0000

          k = 0.2381 0.5774 0.0000 ( 14776 PWs)   bands (ev):

   -61.8490 -36.2007 -36.0608 -36.0071 -13.1569 -13.1012  -6.6265  -6.3386
    -5.1540  -4.3274  -4.2612  -3.1988  -1.3396

     occupation numbers 
     1.0000   1.0000   1.0000   1.0000   1.0000   1.0000   1.0000   1.0000
     1.0000   1.0000   1.0000   1.0000   1.0000

          k = 0.2857 0.4949 0.0000 ( 14730 PWs)   bands (ev):

   -61.8495 -36.1880 -36.0678 -36.0081 -13.1904 -13.1125  -6.5945  -6.2672
    -4.9436  -4.5903  -4.3005  -3.1252  -1.4072

     occupation numbers 
     1.0000   1.0000   1.0000   1.0000   1.0000   1.0000   1.0000   1.0000
     1.0000   1.0000   1.0000   1.0000   1.0000

          k = 0.2857 0.5499 0.0000 ( 14738 PWs)   bands (ev):

   -61.8483 -36.1787 -36.0916 -36.0057 -13.1182 -13.0779  -6.7110  -6.0966
    -5.1873  -4.6621  -4.1861  -3.2765  -1.2553

     occupation numbers 
     1.0000   1.0000   1.0000   1.0000   1.0000   1.0000   1.0000   1.0000
     1.0000   1.0000   1.0000   1.0000   1.0000

          k = 0.3333 0.5774 0.0000 ( 14760 PWs)   bands (ev):

   -61.8478 -36.1630 -36.1133 -36.0047 -13.0898 -13.0628  -6.7632  -5.8970
    -5.3730  -4.7461  -4.1206  -3.3520  -1.1797

     occupation numbers 
     1.0000   1.0000   1.0000   1.0000   1.0000   1.0000   1.0000   1.0000
     1.0000   1.0000   1.0000   1.0000   1.0000

     highest occupied level (ev):    -1.1797

!    total energy              =    -184.83183136 Ry
     estimated scf accuracy    <          3.8E-16 Ry

     convergence has been achieved in  29 iterations

     Forces acting on atoms (cartesian axes, Ry/au):

     atom    1 type  1   force =     0.00000000   -0.00000000    0.00000000
     atom    2 type  2   force =     0.00000000   -0.00000000   -0.00003118
     atom    3 type  2   force =     0.00000000   -0.00000000    0.00003118
     The non-local contrib.  to forces
     atom    1 type  1   force =     0.00000000   -0.00000000    0.00000000
     atom    2 type  2   force =     0.00000000   -0.00000000   -0.25589771
     atom    3 type  2   force =    -0.00000000   -0.00000000    0.25589771
     The ionic contribution  to forces
     atom    1 type  1   force =     0.00000001    0.00000097    0.00000000
     atom    2 type  2   force =    -0.00000000   -0.00000048   37.43236838
     atom    3 type  2   force =    -0.00000000   -0.00000048  -37.43236838
     The local contribution  to forces
     atom    1 type  1   force =    -0.00000000    0.00002380    0.00000000
     atom    2 type  2   force =    -0.00000001    0.00000001  -37.18068669
     atom    3 type  2   force =    -0.00000001    0.00000001   37.18068669
     The core correction contribution to forces
     atom    1 type  1   force =    -0.00000000   -0.00000040   -0.00000000
     atom    2 type  2   force =     0.00000000   -0.00000000    0.00418481
     atom    3 type  2   force =     0.00000000   -0.00000000   -0.00418481
     The Hubbard contrib.    to forces
     atom    1 type  1   force =     0.00000000    0.00000000    0.00000000
     atom    2 type  2   force =     0.00000000    0.00000000    0.00000000
     atom    3 type  2   force =     0.00000000    0.00000000    0.00000000
     The SCF correction term to forces
     atom    1 type  1   force =    -0.00000000   -0.00000000    0.00000000
     atom    2 type  2   force =     0.00000000    0.00000000    0.00000003
     atom    3 type  2   force =     0.00000000    0.00000000   -0.00000003

     Total force =     0.000044     Total SCF correction =     0.000000

     Entering Dynamics:    iteration =     6

     <vel(dt)|acc(dt)> =  -1.00000000

ATOMIC_POSITIONS (crystal)
Mo               0.3333333000        0.6666666000        0.5000000000    0   0   0
S                0.6666666670        0.3333333330        0.5735929381    0   0   1
S                0.6666666670        0.3333333330        0.4264070619    0   0   1



     Writing config-only to output data dir ./tmp/MoS2.save/ :
     XML data file
     NEW-OLD atomic charge density approx. for the potential

     total cpu time spent up to now is      285.5 secs

     per-process dynamical memory:    73.2 Mb

     Self-consistent Calculation

     iteration #  1     ecut=    80.00 Ry     beta= 0.20
     Davidson diagonalization with overlap

---- Real-time Memory Report at c_bands before calling an iterative solver
            93 MiB given to the printing process from OS
            71 MiB allocation reported by mallinfo(arena+hblkhd)
        243589 MiB available memory on the node where the printing process lives
------------------
     ethr =  1.00E-06,  avg # of iterations =  1.0

     Threshold (ethr) on eigenvalues was too large:
     Diagonalizing with lowered threshold

     Davidson diagonalization with overlap

---- Real-time Memory Report at c_bands before calling an iterative solver
            93 MiB given to the printing process from OS
            71 MiB allocation reported by mallinfo(arena+hblkhd)
        243589 MiB available memory on the node where the printing process lives
------------------
     ethr =  5.69E-12,  avg # of iterations =  4.9

     total cpu time spent up to now is      287.9 secs

     total energy              =    -184.83183137 Ry
     estimated scf accuracy    <          4.7E-11 Ry

     iteration #  2     ecut=    80.00 Ry     beta= 0.20
     Davidson diagonalization with overlap

---- Real-time Memory Report at c_bands before calling an iterative solver
            93 MiB given to the printing process from OS
            71 MiB allocation reported by mallinfo(arena+hblkhd)
        243590 MiB available memory on the node where the printing process lives
------------------
     ethr =  1.80E-13,  avg # of iterations =  5.9

     total cpu time spent up to now is      289.5 secs

     total energy              =    -184.83183137 Ry
     estimated scf accuracy    <          6.9E-11 Ry

     iteration #  3     ecut=    80.00 Ry     beta= 0.20
     Davidson diagonalization with overlap

---- Real-time Memory Report at c_bands before calling an iterative solver
            93 MiB given to the printing process from OS
            71 MiB allocation reported by mallinfo(arena+hblkhd)
        243590 MiB available memory on the node where the printing process lives
------------------
     ethr =  1.80E-13,  avg # of iterations =  1.0

     total cpu time spent up to now is      290.4 secs

     total energy              =    -184.83183137 Ry
     estimated scf accuracy    <          6.1E-11 Ry

     iteration #  4     ecut=    80.00 Ry     beta= 0.20
     Davidson diagonalization with overlap

---- Real-time Memory Report at c_bands before calling an iterative solver
            93 MiB given to the printing process from OS
            71 MiB allocation reported by mallinfo(arena+hblkhd)
        243590 MiB available memory on the node where the printing process lives
------------------
     ethr =  1.80E-13,  avg # of iterations =  5.6

     total cpu time spent up to now is      292.2 secs

     total energy              =    -184.83183137 Ry
     estimated scf accuracy    <          2.9E-10 Ry

     iteration #  5     ecut=    80.00 Ry     beta= 0.20
     Davidson diagonalization with overlap

---- Real-time Memory Report at c_bands before calling an iterative solver
            93 MiB given to the printing process from OS
            71 MiB allocation reported by mallinfo(arena+hblkhd)
        243590 MiB available memory on the node where the printing process lives
------------------
     ethr =  1.80E-13,  avg # of iterations =  1.7

     total cpu time spent up to now is      293.2 secs

     total energy              =    -184.83183137 Ry
     estimated scf accuracy    <          2.0E-10 Ry

     iteration #  6     ecut=    80.00 Ry     beta= 0.20
     Davidson diagonalization with overlap

---- Real-time Memory Report at c_bands before calling an iterative solver
            93 MiB given to the printing process from OS
            71 MiB allocation reported by mallinfo(arena+hblkhd)
        243590 MiB available memory on the node where the printing process lives
------------------
     ethr =  1.80E-13,  avg # of iterations =  5.9

     total cpu time spent up to now is      294.8 secs

     total energy              =    -184.83183137 Ry
     estimated scf accuracy    <          2.1E-11 Ry

     iteration #  7     ecut=    80.00 Ry     beta= 0.20
     Davidson diagonalization with overlap

---- Real-time Memory Report at c_bands before calling an iterative solver
            93 MiB given to the printing process from OS
            71 MiB allocation reported by mallinfo(arena+hblkhd)
        243590 MiB available memory on the node where the printing process lives
------------------
     ethr =  1.00E-13,  avg # of iterations =  2.0

     total cpu time spent up to now is      295.9 secs

     total energy              =    -184.83183137 Ry
     estimated scf accuracy    <          5.4E-12 Ry

     iteration #  8     ecut=    80.00 Ry     beta= 0.20
     Davidson diagonalization with overlap

---- Real-time Memory Report at c_bands before calling an iterative solver
            93 MiB given to the printing process from OS
            71 MiB allocation reported by mallinfo(arena+hblkhd)
        243590 MiB available memory on the node where the printing process lives
------------------
     ethr =  1.00E-13,  avg # of iterations =  3.5

     total cpu time spent up to now is      297.1 secs

     total energy              =    -184.83183137 Ry
     estimated scf accuracy    <          3.5E-12 Ry

     iteration #  9     ecut=    80.00 Ry     beta= 0.20
     Davidson diagonalization with overlap

---- Real-time Memory Report at c_bands before calling an iterative solver
            93 MiB given to the printing process from OS
            71 MiB allocation reported by mallinfo(arena+hblkhd)
        243588 MiB available memory on the node where the printing process lives
------------------
     ethr =  1.00E-13,  avg # of iterations =  1.0

     total cpu time spent up to now is      298.0 secs

     total energy              =    -184.83183137 Ry
     estimated scf accuracy    <          5.6E-12 Ry

     iteration # 10     ecut=    80.00 Ry     beta= 0.20
     Davidson diagonalization with overlap

---- Real-time Memory Report at c_bands before calling an iterative solver
            93 MiB given to the printing process from OS
            71 MiB allocation reported by mallinfo(arena+hblkhd)
        243588 MiB available memory on the node where the printing process lives
------------------
     ethr =  1.00E-13,  avg # of iterations =  1.0

     total cpu time spent up to now is      299.0 secs

     total energy              =    -184.83183137 Ry
     estimated scf accuracy    <          9.5E-12 Ry

     iteration # 11     ecut=    80.00 Ry     beta= 0.20
     Davidson diagonalization with overlap

---- Real-time Memory Report at c_bands before calling an iterative solver
            93 MiB given to the printing process from OS
            71 MiB allocation reported by mallinfo(arena+hblkhd)
        243588 MiB available memory on the node where the printing process lives
------------------
     ethr =  1.00E-13,  avg # of iterations =  1.0

     total cpu time spent up to now is      299.9 secs

     total energy              =    -184.83183137 Ry
     estimated scf accuracy    <          1.0E-11 Ry

     iteration # 12     ecut=    80.00 Ry     beta= 0.20
     Davidson diagonalization with overlap

---- Real-time Memory Report at c_bands before calling an iterative solver
            93 MiB given to the printing process from OS
            71 MiB allocation reported by mallinfo(arena+hblkhd)
        243587 MiB available memory on the node where the printing process lives
------------------
     ethr =  1.00E-13,  avg # of iterations =  1.0

     total cpu time spent up to now is      300.9 secs

     total energy              =    -184.83183137 Ry
     estimated scf accuracy    <          5.6E-12 Ry

     iteration # 13     ecut=    80.00 Ry     beta= 0.20
     Davidson diagonalization with overlap

---- Real-time Memory Report at c_bands before calling an iterative solver
            93 MiB given to the printing process from OS
            71 MiB allocation reported by mallinfo(arena+hblkhd)
        243587 MiB available memory on the node where the printing process lives
------------------
     ethr =  1.00E-13,  avg # of iterations =  1.0

     total cpu time spent up to now is      301.8 secs

     total energy              =    -184.83183137 Ry
     estimated scf accuracy    <          5.0E-12 Ry

     iteration # 14     ecut=    80.00 Ry     beta= 0.20
     Davidson diagonalization with overlap

---- Real-time Memory Report at c_bands before calling an iterative solver
            93 MiB given to the printing process from OS
            71 MiB allocation reported by mallinfo(arena+hblkhd)
        243588 MiB available memory on the node where the printing process lives
------------------
     ethr =  1.00E-13,  avg # of iterations =  1.0

     total cpu time spent up to now is      302.8 secs

     total energy              =    -184.83183137 Ry
     estimated scf accuracy    <          3.4E-12 Ry

     iteration # 15     ecut=    80.00 Ry     beta= 0.20
     Davidson diagonalization with overlap

---- Real-time Memory Report at c_bands before calling an iterative solver
            93 MiB given to the printing process from OS
            71 MiB allocation reported by mallinfo(arena+hblkhd)
        243588 MiB available memory on the node where the printing process lives
------------------
     ethr =  1.00E-13,  avg # of iterations =  1.0

     total cpu time spent up to now is      303.7 secs

     total energy              =    -184.83183137 Ry
     estimated scf accuracy    <          2.1E-12 Ry

     iteration # 16     ecut=    80.00 Ry     beta= 0.20
     Davidson diagonalization with overlap

---- Real-time Memory Report at c_bands before calling an iterative solver
            93 MiB given to the printing process from OS
            71 MiB allocation reported by mallinfo(arena+hblkhd)
        243589 MiB available memory on the node where the printing process lives
------------------
     ethr =  1.00E-13,  avg # of iterations =  1.0

     total cpu time spent up to now is      304.7 secs

     total energy              =    -184.83183137 Ry
     estimated scf accuracy    <          1.7E-12 Ry

     iteration # 17     ecut=    80.00 Ry     beta= 0.20
     Davidson diagonalization with overlap

---- Real-time Memory Report at c_bands before calling an iterative solver
            93 MiB given to the printing process from OS
            71 MiB allocation reported by mallinfo(arena+hblkhd)
        243589 MiB available memory on the node where the printing process lives
------------------
     ethr =  1.00E-13,  avg # of iterations =  1.0

     total cpu time spent up to now is      305.6 secs

     total energy              =    -184.83183137 Ry
     estimated scf accuracy    <          9.1E-13 Ry

     iteration # 18     ecut=    80.00 Ry     beta= 0.20
     Davidson diagonalization with overlap

---- Real-time Memory Report at c_bands before calling an iterative solver
            93 MiB given to the printing process from OS
            71 MiB allocation reported by mallinfo(arena+hblkhd)
        243588 MiB available memory on the node where the printing process lives
------------------
     ethr =  1.00E-13,  avg # of iterations =  1.0

     total cpu time spent up to now is      306.5 secs

     total energy              =    -184.83183137 Ry
     estimated scf accuracy    <          1.9E-14 Ry

     iteration # 19     ecut=    80.00 Ry     beta= 0.20
     Davidson diagonalization with overlap

---- Real-time Memory Report at c_bands before calling an iterative solver
            93 MiB given to the printing process from OS
            71 MiB allocation reported by mallinfo(arena+hblkhd)
        243588 MiB available memory on the node where the printing process lives
------------------
     ethr =  1.00E-13,  avg # of iterations =  1.0

     total cpu time spent up to now is      307.5 secs

     total energy              =    -184.83183137 Ry
     estimated scf accuracy    <          1.2E-14 Ry

     iteration # 20     ecut=    80.00 Ry     beta= 0.20
     Davidson diagonalization with overlap

---- Real-time Memory Report at c_bands before calling an iterative solver
            93 MiB given to the printing process from OS
            71 MiB allocation reported by mallinfo(arena+hblkhd)
        243588 MiB available memory on the node where the printing process lives
------------------
     ethr =  1.00E-13,  avg # of iterations =  1.0

     total cpu time spent up to now is      308.4 secs

     total energy              =    -184.83183137 Ry
     estimated scf accuracy    <          6.1E-15 Ry

     iteration # 21     ecut=    80.00 Ry     beta= 0.20
     Davidson diagonalization with overlap

---- Real-time Memory Report at c_bands before calling an iterative solver
            93 MiB given to the printing process from OS
            71 MiB allocation reported by mallinfo(arena+hblkhd)
        243588 MiB available memory on the node where the printing process lives
------------------
     ethr =  1.00E-13,  avg # of iterations =  1.0

     total cpu time spent up to now is      309.3 secs

     total energy              =    -184.83183137 Ry
     estimated scf accuracy    <          1.2E-14 Ry

     iteration # 22     ecut=    80.00 Ry     beta= 0.20
     Davidson diagonalization with overlap

---- Real-time Memory Report at c_bands before calling an iterative solver
            93 MiB given to the printing process from OS
            71 MiB allocation reported by mallinfo(arena+hblkhd)
        243588 MiB available memory on the node where the printing process lives
------------------
     ethr =  1.00E-13,  avg # of iterations =  1.0

     total cpu time spent up to now is      310.3 secs

     total energy              =    -184.83183137 Ry
     estimated scf accuracy    <          1.2E-14 Ry

     iteration # 23     ecut=    80.00 Ry     beta= 0.20
     Davidson diagonalization with overlap

---- Real-time Memory Report at c_bands before calling an iterative solver
            93 MiB given to the printing process from OS
            71 MiB allocation reported by mallinfo(arena+hblkhd)
        243588 MiB available memory on the node where the printing process lives
------------------
     ethr =  1.00E-13,  avg # of iterations =  1.0

     total cpu time spent up to now is      311.3 secs

     total energy              =    -184.83183137 Ry
     estimated scf accuracy    <          5.9E-15 Ry

     iteration # 24     ecut=    80.00 Ry     beta= 0.20
     Davidson diagonalization with overlap

---- Real-time Memory Report at c_bands before calling an iterative solver
            93 MiB given to the printing process from OS
            71 MiB allocation reported by mallinfo(arena+hblkhd)
        243588 MiB available memory on the node where the printing process lives
------------------
     ethr =  1.00E-13,  avg # of iterations =  1.0

     total cpu time spent up to now is      312.2 secs

     total energy              =    -184.83183137 Ry
     estimated scf accuracy    <          1.3E-14 Ry

     iteration # 25     ecut=    80.00 Ry     beta= 0.20
     Davidson diagonalization with overlap

---- Real-time Memory Report at c_bands before calling an iterative solver
            93 MiB given to the printing process from OS
            71 MiB allocation reported by mallinfo(arena+hblkhd)
        243588 MiB available memory on the node where the printing process lives
------------------
     ethr =  1.00E-13,  avg # of iterations =  1.0

     total cpu time spent up to now is      313.2 secs

     total energy              =    -184.83183137 Ry
     estimated scf accuracy    <          1.8E-14 Ry

     iteration # 26     ecut=    80.00 Ry     beta= 0.20
     Davidson diagonalization with overlap

---- Real-time Memory Report at c_bands before calling an iterative solver
            93 MiB given to the printing process from OS
            71 MiB allocation reported by mallinfo(arena+hblkhd)
        243588 MiB available memory on the node where the printing process lives
------------------
     ethr =  1.00E-13,  avg # of iterations =  1.0

     total cpu time spent up to now is      314.1 secs

     total energy              =    -184.83183137 Ry
     estimated scf accuracy    <          2.9E-14 Ry

     iteration # 27     ecut=    80.00 Ry     beta= 0.20
     Davidson diagonalization with overlap

---- Real-time Memory Report at c_bands before calling an iterative solver
            93 MiB given to the printing process from OS
            71 MiB allocation reported by mallinfo(arena+hblkhd)
        243588 MiB available memory on the node where the printing process lives
------------------
     ethr =  1.00E-13,  avg # of iterations =  1.0

     total cpu time spent up to now is      315.1 secs

     total energy              =    -184.83183137 Ry
     estimated scf accuracy    <          1.8E-14 Ry

     iteration # 28     ecut=    80.00 Ry     beta= 0.20
     Davidson diagonalization with overlap

---- Real-time Memory Report at c_bands before calling an iterative solver
            93 MiB given to the printing process from OS
            71 MiB allocation reported by mallinfo(arena+hblkhd)
        243589 MiB available memory on the node where the printing process lives
------------------
     ethr =  1.00E-13,  avg # of iterations =  1.0

     total cpu time spent up to now is      316.0 secs

     total energy              =    -184.83183137 Ry
     estimated scf accuracy    <          4.1E-14 Ry

     iteration # 29     ecut=    80.00 Ry     beta= 0.20
     Davidson diagonalization with overlap

---- Real-time Memory Report at c_bands before calling an iterative solver
            93 MiB given to the printing process from OS
            71 MiB allocation reported by mallinfo(arena+hblkhd)
        243588 MiB available memory on the node where the printing process lives
------------------
     ethr =  1.00E-13,  avg # of iterations =  1.0

     total cpu time spent up to now is      317.0 secs

     total energy              =    -184.83183137 Ry
     estimated scf accuracy    <          2.8E-14 Ry

     iteration # 30     ecut=    80.00 Ry     beta= 0.20
     Davidson diagonalization with overlap

---- Real-time Memory Report at c_bands before calling an iterative solver
            93 MiB given to the printing process from OS
            71 MiB allocation reported by mallinfo(arena+hblkhd)
        243588 MiB available memory on the node where the printing process lives
------------------
     ethr =  1.00E-13,  avg # of iterations =  1.0

     total cpu time spent up to now is      317.9 secs

     total energy              =    -184.83183137 Ry
     estimated scf accuracy    <          3.3E-14 Ry

     iteration # 31     ecut=    80.00 Ry     beta= 0.20
     Davidson diagonalization with overlap

---- Real-time Memory Report at c_bands before calling an iterative solver
            93 MiB given to the printing process from OS
            71 MiB allocation reported by mallinfo(arena+hblkhd)
        243588 MiB available memory on the node where the printing process lives
------------------
     ethr =  1.00E-13,  avg # of iterations =  1.0

     total cpu time spent up to now is      318.9 secs

     End of self-consistent calculation

          k = 0.0000 0.0000 0.0000 ( 14855 PWs)   bands (ev):

   -61.8982 -36.1035 -35.8402 -35.8402 -15.3961 -14.0325  -6.9435  -3.8023
    -3.8023  -3.0139  -2.6457  -2.6457  -1.2396

     occupation numbers 
     1.0000   1.0000   1.0000   1.0000   1.0000   1.0000   1.0000   1.0000
     1.0000   1.0000   1.0000   1.0000   1.0000

          k = 0.0000 0.0550 0.0000 ( 14883 PWs)   bands (ev):

   -61.8972 -36.1015 -35.8500 -35.8424 -15.3601 -14.0179  -6.9025  -3.8841
    -3.7646  -3.2324  -2.7046  -2.4782  -1.2522

     occupation numbers 
     1.0000   1.0000   1.0000   1.0000   1.0000   1.0000   1.0000   1.0000
     1.0000   1.0000   1.0000   1.0000   1.0000

          k = 0.0000 0.1100 0.0000 ( 14863 PWs)   bands (ev):

   -61.8943 -36.0959 -35.8785 -35.8489 -15.2540 -13.9747  -6.7849  -4.1076
    -3.6537  -3.5900  -2.8661  -2.2889  -1.3009

     occupation numbers 
     1.0000   1.0000   1.0000   1.0000   1.0000   1.0000   1.0000   1.0000
     1.0000   1.0000   1.0000   1.0000   1.0000

          k = 0.0000 0.1650 0.0000 ( 14855 PWs)   bands (ev):

   -61.8898 -36.0871 -35.9230 -35.8590 -15.0832 -13.9052  -6.6102  -4.4177
    -3.9724  -3.4776  -3.0946  -2.2207  -1.4148

     occupation numbers 
     1.0000   1.0000   1.0000   1.0000   1.0000   1.0000   1.0000   1.0000
     1.0000   1.0000   1.0000   1.0000   1.0000

          k = 0.0000 0.2199 0.0000 ( 14815 PWs)   bands (ev):

   -61.8840 -36.0758 -35.9791 -35.8718 -14.8566 -13.8133  -6.4220  -4.7420
    -4.3628  -3.3527  -3.2495  -2.2913  -1.6168

     occupation numbers 
     1.0000   1.0000   1.0000   1.0000   1.0000   1.0000   1.0000   1.0000
     1.0000   1.0000   1.0000   1.0000   1.0000

          k = 0.0000 0.2749 0.0000 ( 14799 PWs)   bands (ev):

   -61.8775 -36.0630 -36.0417 -35.8861 -14.5872 -13.7046  -6.3061  -4.9912
    -4.7530  -3.6110  -2.9890  -2.4557  -1.8787

     occupation numbers 
     1.0000   1.0000   1.0000   1.0000   1.0000   1.0000   1.0000   1.0000
     1.0000   1.0000   1.0000   1.0000   1.0000

          k = 0.0000 0.3299 0.0000 ( 14811 PWs)   bands (ev):

   -61.8708 -36.1051 -36.0500 -35.9008 -14.2923 -13.5870  -6.3610  -5.1314
    -5.0957  -3.8486  -2.7216  -2.6478  -2.1080

     occupation numbers 
     1.0000   1.0000   1.0000   1.0000   1.0000   1.0000   1.0000   1.0000
     1.0000   1.0000   1.0000   1.0000   1.0000

          k = 0.0000 0.3849 0.0000 ( 14770 PWs)   bands (ev):

   -61.8646 -36.1637 -36.0378 -35.9144 -13.9949 -13.4705  -6.5609  -5.4792
    -5.1240  -4.0515  -2.8205  -2.4759  -2.2010

     occupation numbers 
     1.0000   1.0000   1.0000   1.0000   1.0000   1.0000   1.0000   1.0000
     1.0000   1.0000   1.0000   1.0000   1.0000

          k = 0.0000 0.4399 0.0000 ( 14722 PWs)   bands (ev):

   -61.8594 -36.2126 -36.0275 -35.9259 -13.7238 -13.3667  -6.7969  -5.7720
    -5.1824  -4.2103  -2.9522  -2.2776  -2.1285

     occupation numbers 
     1.0000   1.0000   1.0000   1.0000   1.0000   1.0000   1.0000   1.0000
     1.0000   1.0000   1.0000   1.0000   1.0000

          k = 0.0000 0.4949 0.0000 ( 14716 PWs)   bands (ev):

   -61.8556 -36.2476 -36.0201 -35.9341 -13.5134 -13.2882  -6.9935  -5.9847
    -5.2683  -4.3191  -3.0380  -2.1427  -1.9699

     occupation numbers 
     1.0000   1.0000   1.0000   1.0000   1.0000   1.0000   1.0000   1.0000
     1.0000   1.0000   1.0000   1.0000   1.0000

          k = 0.0000 0.5499 0.0000 ( 14720 PWs)   bands (ev):

   -61.8536 -36.2658 -36.0162 -35.9384 -13.3971 -13.2457  -7.1044  -6.0968
    -5.3288  -4.3743  -3.0797  -2.0758  -1.8483

     occupation numbers 
     1.0000   1.0000   1.0000   1.0000   1.0000   1.0000   1.0000   1.0000
     1.0000   1.0000   1.0000   1.0000   1.0000

          k = 0.0476 0.0825 0.0000 ( 14875 PWs)   bands (ev):

   -61.8952 -36.0978 -35.8690 -35.8469 -15.2891 -13.9890  -6.8230  -4.0361
    -3.6909  -3.4857  -2.8307  -2.3176  -1.2828

     occupation numbers 
     1.0000   1.0000   1.0000   1.0000   1.0000   1.0000   1.0000   1.0000
     1.0000   1.0000   1.0000   1.0000   1.0000

          k = 0.0476 0.1375 0.0000 ( 14858 PWs)   bands (ev):

   -61.8915 -36.0905 -35.9050 -35.8556 -15.1506 -13.9326  -6.6758  -4.3006
    -3.8180  -3.5498  -3.0615  -2.1855  -1.3640

     occupation numbers 
     1.0000   1.0000   1.0000   1.0000   1.0000   1.0000   1.0000   1.0000
     1.0000   1.0000   1.0000   1.0000   1.0000

          k = 0.0476 0.1925 0.0000 ( 14822 PWs)   bands (ev):

   -61.8864 -36.0805 -35.9546 -35.8678 -14.9518 -13.8517  -6.4903  -4.6146
    -4.1774  -3.3539  -3.3405  -2.1713  -1.5231

     occupation numbers 
     1.0000   1.0000   1.0000   1.0000   1.0000   1.0000   1.0000   1.0000
     1.0000   1.0000   1.0000   1.0000   1.0000

          k = 0.0476 0.2474 0.0000 ( 14793 PWs)   bands (ev):

   -61.8802 -36.0684 -36.0132 -35.8821 -14.7035 -13.7511  -6.3291  -4.8981
    -4.5539  -3.6188  -3.1243  -2.2795  -1.7580

     occupation numbers 
     1.0000   1.0000   1.0000   1.0000   1.0000   1.0000   1.0000   1.0000
     1.0000   1.0000   1.0000   1.0000   1.0000

          k = 0.0476 0.3024 0.0000 ( 14812 PWs)   bands (ev):

   -61.8737 -36.0754 -36.0555 -35.8975 -14.4207 -13.6374  -6.2959  -5.0602
    -4.9388  -3.8636  -2.8941  -2.4612  -1.9974

     occupation numbers 
     1.0000   1.0000   1.0000   1.0000   1.0000   1.0000   1.0000   1.0000
     1.0000   1.0000   1.0000   1.0000   1.0000

          k = 0.0476 0.3574 0.0000 ( 14790 PWs)   bands (ev):

   -61.8672 -36.1356 -36.0429 -35.9125 -14.1234 -13.5195  -6.4359  -5.3122
    -5.0972  -4.0607  -2.7089  -2.6594  -2.1176

     occupation numbers 
     1.0000   1.0000   1.0000   1.0000   1.0000   1.0000   1.0000   1.0000
     1.0000   1.0000   1.0000   1.0000   1.0000

          k = 0.0476 0.4124 0.0000 ( 14759 PWs)   bands (ev):

   -61.8615 -36.1886 -36.0317 -35.9257 -13.8374 -13.4081  -6.6603  -5.6457
    -5.1294  -4.2088  -2.8349  -2.5756  -2.0591

     occupation numbers 
     1.0000   1.0000   1.0000   1.0000   1.0000   1.0000   1.0000   1.0000
     1.0000   1.0000   1.0000   1.0000   1.0000

          k = 0.0476 0.4674 0.0000 ( 14731 PWs)   bands (ev):

   -61.8570 -36.2299 -36.0228 -35.9361 -13.5944 -13.3157  -6.8766  -5.9100
    -5.2084  -4.3111  -2.9674  -2.4471  -1.9112

     occupation numbers 
     1.0000   1.0000   1.0000   1.0000   1.0000   1.0000   1.0000   1.0000
     1.0000   1.0000   1.0000   1.0000   1.0000

          k = 0.0476 0.5224 0.0000 ( 14718 PWs)   bands (ev):

   -61.8541 -36.2562 -36.0172 -35.9427 -13.4288 -13.2541  -7.0293  -6.0800
    -5.2903  -4.3711  -3.0486  -2.3462  -1.7694

     occupation numbers 
     1.0000   1.0000   1.0000   1.0000   1.0000   1.0000   1.0000   1.0000
     1.0000   1.0000   1.0000   1.0000   1.0000

          k = 0.0476 0.5774 0.0000 ( 14714 PWs)   bands (ev):

   -61.8531 -36.2652 -36.0152 -35.9450 -13.3698 -13.2325  -7.0844  -6.1386
    -5.3239  -4.3909  -3.0758  -2.3098  -1.7097

     occupation numbers 
     1.0000   1.0000   1.0000   1.0000   1.0000   1.0000   1.0000   1.0000
     1.0000   1.0000   1.0000   1.0000   1.0000

          k = 0.0952 0.1650 0.0000 ( 14827 PWs)   bands (ev):

   -61.8872 -36.0821 -35.9454 -35.8672 -14.9840 -13.8648  -6.5148  -4.5654
    -4.0857  -3.3942  -3.3915  -2.0924  -1.4910

     occupation numbers 
     1.0000   1.0000   1.0000   1.0000   1.0000   1.0000   1.0000   1.0000
     1.0000   1.0000   1.0000   1.0000   1.0000

          k = 0.0952 0.2199 0.0000 ( 14813 PWs)   bands (ev):

   -61.8817 -36.0713 -35.9961 -35.8823 -14.7632 -13.7749  -6.3453  -4.8336
    -4.3833  -3.7485  -3.2128  -2.0969  -1.6877

     occupation numbers 
     1.0000   1.0000   1.0000   1.0000   1.0000   1.0000   1.0000   1.0000
     1.0000   1.0000   1.0000   1.0000   1.0000

          k = 0.0952 0.2749 0.0000 ( 14793 PWs)   bands (ev):

   -61.8755 -36.0591 -36.0524 -35.8994 -14.5008 -13.6684  -6.2525  -5.0168
    -4.7355  -4.0370  -3.0503  -2.2131  -1.9053

     occupation numbers 
     1.0000   1.0000   1.0000   1.0000   1.0000   1.0000   1.0000   1.0000
     1.0000   1.0000   1.0000   1.0000   1.0000

          k = 0.0952 0.3299 0.0000 ( 14799 PWs)   bands (ev):

   -61.8691 -36.1095 -36.0466 -35.9169 -14.2140 -13.5530  -6.3185  -5.1309
    -5.0609  -4.2232  -2.9643  -2.4030  -2.0320

     occupation numbers 
     1.0000   1.0000   1.0000   1.0000   1.0000   1.0000   1.0000   1.0000
     1.0000   1.0000   1.0000   1.0000   1.0000

          k = 0.0952 0.3849 0.0000 ( 14771 PWs)   bands (ev):

   -61.8632 -36.1623 -36.0349 -35.9332 -13.9255 -13.4382  -6.5019  -5.5158
    -5.0574  -4.3296  -2.9399  -2.6173  -2.0030

     occupation numbers 
     1.0000   1.0000   1.0000   1.0000   1.0000   1.0000   1.0000   1.0000
     1.0000   1.0000   1.0000   1.0000   1.0000

          k = 0.0952 0.4399 0.0000 ( 14747 PWs)   bands (ev):

   -61.8582 -36.2064 -36.0251 -35.9469 -13.6635 -13.3357  -6.7080  -5.8429
    -5.1118  -4.3821  -2.8868  -2.8155  -1.8769

     occupation numbers 
     1.0000   1.0000   1.0000   1.0000   1.0000   1.0000   1.0000   1.0000
     1.0000   1.0000   1.0000   1.0000   1.0000

          k = 0.0952 0.4949 0.0000 ( 14735 PWs)   bands (ev):

   -61.8546 -36.2379 -36.0180 -35.9568 -13.4608 -13.2580  -6.8762  -6.0795
    -5.2078  -4.4012  -2.9676  -2.8073  -1.7237

     occupation numbers 
     1.0000   1.0000   1.0000   1.0000   1.0000   1.0000   1.0000   1.0000
     1.0000   1.0000   1.0000   1.0000   1.0000

          k = 0.0952 0.5499 0.0000 ( 14714 PWs)   bands (ev):

   -61.8527 -36.2543 -36.0143 -35.9619 -13.3493 -13.2158  -6.9703  -6.2035
    -5.2771  -4.4047  -3.0507  -2.7552  -1.6140

     occupation numbers 
     1.0000   1.0000   1.0000   1.0000   1.0000   1.0000   1.0000   1.0000
     1.0000   1.0000   1.0000   1.0000   1.0000

          k = 0.1429 0.2474 0.0000 ( 14801 PWs)   bands (ev):

   -61.8761 -36.0603 -36.0435 -35.9011 -14.5279 -13.6789  -6.2372  -4.9972
    -4.6137  -4.1606  -3.1106  -2.1019  -1.8715

     occupation numbers 
     1.0000   1.0000   1.0000   1.0000   1.0000   1.0000   1.0000   1.0000
     1.0000   1.0000   1.0000   1.0000   1.0000

          k = 0.1429 0.3024 0.0000 ( 14798 PWs)   bands (ev):

   -61.8701 -36.0930 -36.0485 -35.9221 -14.2607 -13.5700  -6.2459  -5.0341
    -4.9682  -4.4028  -3.1191  -2.2151  -1.9882

     occupation numbers 
     1.0000   1.0000   1.0000   1.0000   1.0000   1.0000   1.0000   1.0000
     1.0000   1.0000   1.0000   1.0000   1.0000

          k = 0.1429 0.3574 0.0000 ( 14791 PWs)   bands (ev):

   -61.8642 -36.1406 -36.0370 -35.9432 -13.9810 -13.4564  -6.3709  -5.3929
    -4.9869  -4.4862  -3.2286  -2.4087  -1.9825

     occupation numbers 
     1.0000   1.0000   1.0000   1.0000   1.0000   1.0000   1.0000   1.0000
     1.0000   1.0000   1.0000   1.0000   1.0000

          k = 0.1429 0.4124 0.0000 ( 14771 PWs)   bands (ev):

   -61.8590 -36.1822 -36.0268 -35.9621 -13.7137 -13.3486  -6.5360  -5.7807
    -4.9876  -4.4931  -3.3136  -2.6359  -1.8853

     occupation numbers 
     1.0000   1.0000   1.0000   1.0000   1.0000   1.0000   1.0000   1.0000
     1.0000   1.0000   1.0000   1.0000   1.0000

          k = 0.1429 0.4674 0.0000 ( 14749 PWs)   bands (ev):

   -61.8549 -36.2146 -36.0187 -35.9770 -13.4883 -13.2586  -6.6836  -6.0843
    -5.0796  -4.4593  -3.3157  -2.8505  -1.7358

     occupation numbers 
     1.0000   1.0000   1.0000   1.0000   1.0000   1.0000   1.0000   1.0000
     1.0000   1.0000   1.0000   1.0000   1.0000

          k = 0.1429 0.5224 0.0000 ( 14744 PWs)   bands (ev):

   -61.8523 -36.2352 -36.0136 -35.9866 -13.3360 -13.1985  -6.7831  -6.2772
    -5.1882  -4.4153  -3.2854  -3.0082  -1.5868

     occupation numbers 
     1.0000   1.0000   1.0000   1.0000   1.0000   1.0000   1.0000   1.0000
     1.0000   1.0000   1.0000   1.0000   1.0000

          k = 0.1429 0.5774 0.0000 ( 14722 PWs)   bands (ev):

   -61.8514 -36.2422 -36.0118 -35.9898 -13.2819 -13.1772  -6.8182  -6.3433
    -5.2338  -4.3949  -3.2711  -3.0674  -1.5216

     occupation numbers 
     1.0000   1.0000   1.0000   1.0000   1.0000   1.0000   1.0000   1.0000
     1.0000   1.0000   1.0000   1.0000   1.0000

          k = 0.1905 0.3299 0.0000 ( 14781 PWs)   bands (ev):

   -61.8646 -36.1317 -36.0377 -35.9479 -14.0000 -13.4624  -6.3191  -5.3343
    -4.9551  -4.5623  -3.3418  -2.3228  -1.9783

     occupation numbers 
     1.0000   1.0000   1.0000   1.0000   1.0000   1.0000   1.0000   1.0000
     1.0000   1.0000   1.0000   1.0000   1.0000

          k = 0.1905 0.3849 0.0000 ( 14753 PWs)   bands (ev):

   -61.8594 -36.1659 -36.0276 -35.9738 -13.7400 -13.3548  -6.4244  -5.7387
    -4.8772  -4.5745  -3.6037  -2.5147  -1.9007

     occupation numbers 
     1.0000   1.0000   1.0000   1.0000   1.0000   1.0000   1.0000   1.0000
     1.0000   1.0000   1.0000   1.0000   1.0000

          k = 0.1905 0.4399 0.0000 ( 14749 PWs)   bands (ev):

   -61.8551 -36.1932 -36.0192 -35.9966 -13.5067 -13.2580  -6.5158  -6.0880
    -4.9120  -4.5149  -3.7710  -2.7444  -1.7644

     occupation numbers 
     1.0000   1.0000   1.0000   1.0000   1.0000   1.0000   1.0000   1.0000
     1.0000   1.0000   1.0000   1.0000   1.0000

          k = 0.1905 0.4949 0.0000 ( 14736 PWs)   bands (ev):

   -61.8520 -36.2123 -36.0136 -36.0130 -13.3286 -13.1840  -6.5730  -6.3403
    -5.0496  -4.4259  -3.8190  -2.9582  -1.5923

     occupation numbers 
     1.0000   1.0000   1.0000   1.0000   1.0000   1.0000   1.0000   1.0000
     1.0000   1.0000   1.0000   1.0000   1.0000

          k = 0.1905 0.5499 0.0000 ( 14754 PWs)   bands (ev):

   -61.8504 -36.2221 -36.0227 -36.0098 -13.2316 -13.1437  -6.5967  -6.4723
    -5.1633  -4.3561  -3.8210  -3.0938  -1.4613

     occupation numbers 
     1.0000   1.0000   1.0000   1.0000   1.0000   1.0000   1.0000   1.0000
     1.0000   1.0000   1.0000   1.0000   1.0000

          k = 0.2381 0.4124 0.0000 ( 14762 PWs)   bands (ev):

   -61.8552 -36.1840 -36.0193 -36.0053 -13.5132 -13.2575  -6.4479  -6.0892
    -4.8019  -4.5374  -3.9899  -2.7015  -1.7778

     occupation numbers 
     1.0000   1.0000   1.0000   1.0000   1.0000   1.0000   1.0000   1.0000
     1.0000   1.0000   1.0000   1.0000   1.0000

          k = 0.2381 0.4674 0.0000 ( 14739 PWs)   bands (ev):

   -61.8518 -36.1947 -36.0335 -36.0127 -13.3255 -13.1757  -6.4257  -6.3764
    -4.8647  -4.4334  -4.2469  -2.9229  -1.6026

     occupation numbers 
     1.0000   1.0000   1.0000   1.0000   1.0000   1.0000   1.0000   1.0000
     1.0000   1.0000   1.0000   1.0000   1.0000

          k = 0.2381 0.5224 0.0000 ( 14764 PWs)   bands (ev):

   -61.8497 -36.1995 -36.0535 -36.0086 -13.2008 -13.1207  -6.5623  -6.3712
    -5.0549  -4.3191  -4.3167  -3.1165  -1.4218

     occupation numbers 
     1.0000   1.0000   1.0000   1.0000   1.0000   1.0000   1.0000   1.0000
     1.0000   1.0000   1.0000   1.0000   1.0000

          k = 0.2381 0.5774 0.0000 ( 14776 PWs)   bands (ev):

   -61.8490 -36.2007 -36.0608 -36.0071 -13.1570 -13.1013  -6.6265  -6.3386
    -5.1541  -4.3274  -4.2612  -3.1987  -1.3397

     occupation numbers 
     1.0000   1.0000   1.0000   1.0000   1.0000   1.0000   1.0000   1.0000
     1.0000   1.0000   1.0000   1.0000   1.0000

          k = 0.2857 0.4949 0.0000 ( 14730 PWs)   bands (ev):

   -61.8495 -36.1880 -36.0678 -36.0081 -13.1905 -13.1125  -6.5946  -6.2672
    -4.9436  -4.5904  -4.3005  -3.1252  -1.4072

     occupation numbers 
     1.0000   1.0000   1.0000   1.0000   1.0000   1.0000   1.0000   1.0000
     1.0000   1.0000   1.0000   1.0000   1.0000

          k = 0.2857 0.5499 0.0000 ( 14738 PWs)   bands (ev):

   -61.8483 -36.1787 -36.0916 -36.0057 -13.1183 -13.0780  -6.7111  -6.0966
    -5.1874  -4.6621  -4.1861  -3.2765  -1.2553

     occupation numbers 
     1.0000   1.0000   1.0000   1.0000   1.0000   1.0000   1.0000   1.0000
     1.0000   1.0000   1.0000   1.0000   1.0000

          k = 0.3333 0.5774 0.0000 ( 14760 PWs)   bands (ev):

   -61.8478 -36.1630 -36.1133 -36.0047 -13.0898 -13.0628  -6.7633  -5.8971
    -5.3731  -4.7462  -4.1206  -3.3520  -1.1798

     occupation numbers 
     1.0000   1.0000   1.0000   1.0000   1.0000   1.0000   1.0000   1.0000
     1.0000   1.0000   1.0000   1.0000   1.0000

     highest occupied level (ev):    -1.1798

!    total energy              =    -184.83183137 Ry
     estimated scf accuracy    <          4.3E-16 Ry

     convergence has been achieved in  31 iterations

     Forces acting on atoms (cartesian axes, Ry/au):

     atom    1 type  1   force =     0.00000000    0.00000000    0.00000000
     atom    2 type  2   force =    -0.00000000    0.00000000   -0.00001747
     atom    3 type  2   force =     0.00000000   -0.00000000    0.00001747
     The non-local contrib.  to forces
     atom    1 type  1   force =     0.00000000   -0.00000000    0.00000000
     atom    2 type  2   force =     0.00000000    0.00000000   -0.25588929
     atom    3 type  2   force =    -0.00000000   -0.00000000    0.25588929
     The ionic contribution  to forces
     atom    1 type  1   force =     0.00000001    0.00000097    0.00000000
     atom    2 type  2   force =    -0.00000000   -0.00000048   37.43238678
     atom    3 type  2   force =    -0.00000000   -0.00000048  -37.43238678
     The local contribution  to forces
     atom    1 type  1   force =    -0.00000000    0.00002380    0.00000000
     atom    2 type  2   force =    -0.00000001    0.00000001  -37.18069917
     atom    3 type  2   force =    -0.00000001    0.00000001   37.18069917
     The core correction contribution to forces
     atom    1 type  1   force =    -0.00000000   -0.00000040   -0.00000000
     atom    2 type  2   force =     0.00000000   -0.00000000    0.00418422
     atom    3 type  2   force =     0.00000000   -0.00000000   -0.00418422
     The Hubbard contrib.    to forces
     atom    1 type  1   force =     0.00000000    0.00000000    0.00000000
     atom    2 type  2   force =     0.00000000    0.00000000    0.00000000
     atom    3 type  2   force =     0.00000000    0.00000000    0.00000000
     The SCF correction term to forces
     atom    1 type  1   force =     0.00000000   -0.00000000   -0.00000000
     atom    2 type  2   force =    -0.00000000    0.00000000   -0.00000002
     atom    3 type  2   force =    -0.00000000   -0.00000000    0.00000002

     Total force =     0.000025     Total SCF correction =     0.000000

     Entering Dynamics:    iteration =     7

     <vel(dt)|acc(dt)> =   1.00000000

ATOMIC_POSITIONS (crystal)
Mo               0.3333333000        0.6666666000        0.5000000000    0   0   0
S                0.6666666670        0.3333333330        0.5735916072    0   0   1
S                0.6666666670        0.3333333330        0.4264083928    0   0   1



     Writing config-only to output data dir ./tmp/MoS2.save/ :
     XML data file
     NEW-OLD atomic charge density approx. for the potential

     total cpu time spent up to now is      319.1 secs

     per-process dynamical memory:    73.2 Mb

     Self-consistent Calculation

     iteration #  1     ecut=    80.00 Ry     beta= 0.20
     Davidson diagonalization with overlap

---- Real-time Memory Report at c_bands before calling an iterative solver
            93 MiB given to the printing process from OS
            71 MiB allocation reported by mallinfo(arena+hblkhd)
        243587 MiB available memory on the node where the printing process lives
------------------
     ethr =  1.00E-06,  avg # of iterations =  1.0

     Threshold (ethr) on eigenvalues was too large:
     Diagonalizing with lowered threshold

     Davidson diagonalization with overlap

---- Real-time Memory Report at c_bands before calling an iterative solver
            93 MiB given to the printing process from OS
            71 MiB allocation reported by mallinfo(arena+hblkhd)
        243587 MiB available memory on the node where the printing process lives
------------------
     ethr =  1.38E-11,  avg # of iterations =  4.9

     total cpu time spent up to now is      321.6 secs

     total energy              =    -184.83183137 Ry
     estimated scf accuracy    <          1.2E-10 Ry

     iteration #  2     ecut=    80.00 Ry     beta= 0.20
     Davidson diagonalization with overlap

---- Real-time Memory Report at c_bands before calling an iterative solver
            93 MiB given to the printing process from OS
            71 MiB allocation reported by mallinfo(arena+hblkhd)
        243587 MiB available memory on the node where the printing process lives
------------------
     ethr =  4.43E-13,  avg # of iterations =  5.9

     total cpu time spent up to now is      323.1 secs

     total energy              =    -184.83183137 Ry
     estimated scf accuracy    <          1.7E-10 Ry

     iteration #  3     ecut=    80.00 Ry     beta= 0.20
     Davidson diagonalization with overlap

---- Real-time Memory Report at c_bands before calling an iterative solver
            93 MiB given to the printing process from OS
            71 MiB allocation reported by mallinfo(arena+hblkhd)
        243588 MiB available memory on the node where the printing process lives
------------------
     ethr =  4.43E-13,  avg # of iterations =  1.0

     total cpu time spent up to now is      324.1 secs

     total energy              =    -184.83183137 Ry
     estimated scf accuracy    <          1.5E-10 Ry

     iteration #  4     ecut=    80.00 Ry     beta= 0.20
     Davidson diagonalization with overlap

---- Real-time Memory Report at c_bands before calling an iterative solver
            93 MiB given to the printing process from OS
            71 MiB allocation reported by mallinfo(arena+hblkhd)
        243588 MiB available memory on the node where the printing process lives
------------------
     ethr =  4.43E-13,  avg # of iterations =  5.6

     total cpu time spent up to now is      325.9 secs

     total energy              =    -184.83183137 Ry
     estimated scf accuracy    <          7.2E-10 Ry

     iteration #  5     ecut=    80.00 Ry     beta= 0.20
     Davidson diagonalization with overlap

---- Real-time Memory Report at c_bands before calling an iterative solver
            93 MiB given to the printing process from OS
            71 MiB allocation reported by mallinfo(arena+hblkhd)
        243587 MiB available memory on the node where the printing process lives
------------------
     ethr =  4.43E-13,  avg # of iterations =  1.8

     total cpu time spent up to now is      326.9 secs

     total energy              =    -184.83183137 Ry
     estimated scf accuracy    <          4.8E-10 Ry

     iteration #  6     ecut=    80.00 Ry     beta= 0.20
     Davidson diagonalization with overlap

---- Real-time Memory Report at c_bands before calling an iterative solver
            93 MiB given to the printing process from OS
            71 MiB allocation reported by mallinfo(arena+hblkhd)
        243586 MiB available memory on the node where the printing process lives
------------------
     ethr =  4.43E-13,  avg # of iterations =  5.9

     total cpu time spent up to now is      328.5 secs

     total energy              =    -184.83183137 Ry
     estimated scf accuracy    <          5.5E-11 Ry

     iteration #  7     ecut=    80.00 Ry     beta= 0.20
     Davidson diagonalization with overlap

---- Real-time Memory Report at c_bands before calling an iterative solver
            93 MiB given to the printing process from OS
            71 MiB allocation reported by mallinfo(arena+hblkhd)
        243586 MiB available memory on the node where the printing process lives
------------------
     ethr =  2.10E-13,  avg # of iterations =  2.3

     total cpu time spent up to now is      329.5 secs

     total energy              =    -184.83183137 Ry
     estimated scf accuracy    <          1.4E-11 Ry

     iteration #  8     ecut=    80.00 Ry     beta= 0.20
     Davidson diagonalization with overlap

---- Real-time Memory Report at c_bands before calling an iterative solver
            93 MiB given to the printing process from OS
            71 MiB allocation reported by mallinfo(arena+hblkhd)
        243586 MiB available memory on the node where the printing process lives
------------------
     ethr =  1.00E-13,  avg # of iterations =  4.9

     total cpu time spent up to now is      331.0 secs

     total energy              =    -184.83183137 Ry
     estimated scf accuracy    <          2.2E-11 Ry

     iteration #  9     ecut=    80.00 Ry     beta= 0.20
     Davidson diagonalization with overlap

---- Real-time Memory Report at c_bands before calling an iterative solver
            93 MiB given to the printing process from OS
            71 MiB allocation reported by mallinfo(arena+hblkhd)
        243580 MiB available memory on the node where the printing process lives
------------------
     ethr =  1.00E-13,  avg # of iterations =  1.0

     total cpu time spent up to now is      331.9 secs

     total energy              =    -184.83183137 Ry
     estimated scf accuracy    <          1.8E-11 Ry

     iteration # 10     ecut=    80.00 Ry     beta= 0.20
     Davidson diagonalization with overlap

---- Real-time Memory Report at c_bands before calling an iterative solver
            93 MiB given to the printing process from OS
            71 MiB allocation reported by mallinfo(arena+hblkhd)
        243580 MiB available memory on the node where the printing process lives
------------------
     ethr =  1.00E-13,  avg # of iterations =  3.2

     total cpu time spent up to now is      333.2 secs

     total energy              =    -184.83183137 Ry
     estimated scf accuracy    <          2.8E-12 Ry

     iteration # 11     ecut=    80.00 Ry     beta= 0.20
     Davidson diagonalization with overlap

---- Real-time Memory Report at c_bands before calling an iterative solver
            93 MiB given to the printing process from OS
            71 MiB allocation reported by mallinfo(arena+hblkhd)
        243580 MiB available memory on the node where the printing process lives
------------------
     ethr =  1.00E-13,  avg # of iterations =  1.0

     total cpu time spent up to now is      334.1 secs

     total energy              =    -184.83183137 Ry
     estimated scf accuracy    <          1.9E-12 Ry

     iteration # 12     ecut=    80.00 Ry     beta= 0.20
     Davidson diagonalization with overlap

---- Real-time Memory Report at c_bands before calling an iterative solver
            93 MiB given to the printing process from OS
            71 MiB allocation reported by mallinfo(arena+hblkhd)
        243581 MiB available memory on the node where the printing process lives
------------------
     ethr =  1.00E-13,  avg # of iterations =  1.0

     total cpu time spent up to now is      335.1 secs

     total energy              =    -184.83183137 Ry
     estimated scf accuracy    <          1.5E-13 Ry

     iteration # 13     ecut=    80.00 Ry     beta= 0.20
     Davidson diagonalization with overlap

---- Real-time Memory Report at c_bands before calling an iterative solver
            93 MiB given to the printing process from OS
            71 MiB allocation reported by mallinfo(arena+hblkhd)
        243581 MiB available memory on the node where the printing process lives
------------------
     ethr =  1.00E-13,  avg # of iterations =  1.0

     total cpu time spent up to now is      336.1 secs

     total energy              =    -184.83183137 Ry
     estimated scf accuracy    <          3.4E-13 Ry

     iteration # 14     ecut=    80.00 Ry     beta= 0.20
     Davidson diagonalization with overlap

---- Real-time Memory Report at c_bands before calling an iterative solver
            93 MiB given to the printing process from OS
            71 MiB allocation reported by mallinfo(arena+hblkhd)
        243581 MiB available memory on the node where the printing process lives
------------------
     ethr =  1.00E-13,  avg # of iterations =  1.0

     total cpu time spent up to now is      337.0 secs

     total energy              =    -184.83183137 Ry
     estimated scf accuracy    <          2.9E-13 Ry

     iteration # 15     ecut=    80.00 Ry     beta= 0.20
     Davidson diagonalization with overlap

---- Real-time Memory Report at c_bands before calling an iterative solver
            93 MiB given to the printing process from OS
            71 MiB allocation reported by mallinfo(arena+hblkhd)
        243581 MiB available memory on the node where the printing process lives
------------------
     ethr =  1.00E-13,  avg # of iterations =  1.0

     total cpu time spent up to now is      338.0 secs

     total energy              =    -184.83183137 Ry
     estimated scf accuracy    <          2.3E-14 Ry

     iteration # 16     ecut=    80.00 Ry     beta= 0.20
     Davidson diagonalization with overlap

---- Real-time Memory Report at c_bands before calling an iterative solver
            93 MiB given to the printing process from OS
            71 MiB allocation reported by mallinfo(arena+hblkhd)
        243588 MiB available memory on the node where the printing process lives
------------------
     ethr =  1.00E-13,  avg # of iterations =  1.0

     total cpu time spent up to now is      338.9 secs

     total energy              =    -184.83183137 Ry
     estimated scf accuracy    <          9.4E-15 Ry

     iteration # 17     ecut=    80.00 Ry     beta= 0.20
     Davidson diagonalization with overlap

---- Real-time Memory Report at c_bands before calling an iterative solver
            93 MiB given to the printing process from OS
            71 MiB allocation reported by mallinfo(arena+hblkhd)
        243588 MiB available memory on the node where the printing process lives
------------------
     ethr =  1.00E-13,  avg # of iterations =  1.0

     total cpu time spent up to now is      339.9 secs

     End of self-consistent calculation

          k = 0.0000 0.0000 0.0000 ( 14855 PWs)   bands (ev):

   -61.8982 -36.1035 -35.8402 -35.8402 -15.3962 -14.0325  -6.9436  -3.8025
    -3.8025  -3.0138  -2.6458  -2.6458  -1.2395

     occupation numbers 
     1.0000   1.0000   1.0000   1.0000   1.0000   1.0000   1.0000   1.0000
     1.0000   1.0000   1.0000   1.0000   1.0000

          k = 0.0000 0.0550 0.0000 ( 14883 PWs)   bands (ev):

   -61.8972 -36.1016 -35.8501 -35.8425 -15.3602 -14.0179  -6.9026  -3.8843
    -3.7648  -3.2325  -2.7048  -2.4783  -1.2521

     occupation numbers 
     1.0000   1.0000   1.0000   1.0000   1.0000   1.0000   1.0000   1.0000
     1.0000   1.0000   1.0000   1.0000   1.0000

          k = 0.0000 0.1100 0.0000 ( 14863 PWs)   bands (ev):

   -61.8943 -36.0959 -35.8786 -35.8489 -15.2542 -13.9747  -6.7850  -4.1077
    -3.6539  -3.5900  -2.8662  -2.2889  -1.3009

     occupation numbers 
     1.0000   1.0000   1.0000   1.0000   1.0000   1.0000   1.0000   1.0000
     1.0000   1.0000   1.0000   1.0000   1.0000

          k = 0.0000 0.1650 0.0000 ( 14855 PWs)   bands (ev):

   -61.8898 -36.0871 -35.9230 -35.8590 -15.0833 -13.9052  -6.6103  -4.4179
    -3.9725  -3.4778  -3.0947  -2.2207  -1.4148

     occupation numbers 
     1.0000   1.0000   1.0000   1.0000   1.0000   1.0000   1.0000   1.0000
     1.0000   1.0000   1.0000   1.0000   1.0000

          k = 0.0000 0.2199 0.0000 ( 14815 PWs)   bands (ev):

   -61.8840 -36.0758 -35.9791 -35.8718 -14.8567 -13.8133  -6.4221  -4.7421
    -4.3628  -3.3529  -3.2497  -2.2913  -1.6168

     occupation numbers 
     1.0000   1.0000   1.0000   1.0000   1.0000   1.0000   1.0000   1.0000
     1.0000   1.0000   1.0000   1.0000   1.0000

          k = 0.0000 0.2749 0.0000 ( 14799 PWs)   bands (ev):

   -61.8775 -36.0631 -36.0417 -35.8862 -14.5873 -13.7047  -6.3062  -4.9913
    -4.7530  -3.6112  -2.9892  -2.4556  -1.8787

     occupation numbers 
     1.0000   1.0000   1.0000   1.0000   1.0000   1.0000   1.0000   1.0000
     1.0000   1.0000   1.0000   1.0000   1.0000

          k = 0.0000 0.3299 0.0000 ( 14811 PWs)   bands (ev):

   -61.8708 -36.1051 -36.0500 -35.9008 -14.2924 -13.5871  -6.3612  -5.1315
    -5.0958  -3.8488  -2.7218  -2.6478  -2.1080

     occupation numbers 
     1.0000   1.0000   1.0000   1.0000   1.0000   1.0000   1.0000   1.0000
     1.0000   1.0000   1.0000   1.0000   1.0000

          k = 0.0000 0.3849 0.0000 ( 14770 PWs)   bands (ev):

   -61.8646 -36.1638 -36.0378 -35.9145 -13.9950 -13.4705  -6.5610  -5.4792
    -5.1241  -4.0517  -2.8205  -2.4760  -2.2010

     occupation numbers 
     1.0000   1.0000   1.0000   1.0000   1.0000   1.0000   1.0000   1.0000
     1.0000   1.0000   1.0000   1.0000   1.0000

          k = 0.0000 0.4399 0.0000 ( 14722 PWs)   bands (ev):

   -61.8594 -36.2126 -36.0275 -35.9259 -13.7239 -13.3668  -6.7971  -5.7720
    -5.1825  -4.2105  -2.9522  -2.2777  -2.1285

     occupation numbers 
     1.0000   1.0000   1.0000   1.0000   1.0000   1.0000   1.0000   1.0000
     1.0000   1.0000   1.0000   1.0000   1.0000

          k = 0.0000 0.4949 0.0000 ( 14716 PWs)   bands (ev):

   -61.8556 -36.2476 -36.0201 -35.9341 -13.5135 -13.2882  -6.9936  -5.9847
    -5.2684  -4.3193  -3.0379  -2.1428  -1.9699

     occupation numbers 
     1.0000   1.0000   1.0000   1.0000   1.0000   1.0000   1.0000   1.0000
     1.0000   1.0000   1.0000   1.0000   1.0000

          k = 0.0000 0.5499 0.0000 ( 14720 PWs)   bands (ev):

   -61.8536 -36.2658 -36.0162 -35.9384 -13.3972 -13.2458  -7.1045  -6.0968
    -5.3289  -4.3745  -3.0796  -2.0759  -1.8483

     occupation numbers 
     1.0000   1.0000   1.0000   1.0000   1.0000   1.0000   1.0000   1.0000
     1.0000   1.0000   1.0000   1.0000   1.0000

          k = 0.0476 0.0825 0.0000 ( 14875 PWs)   bands (ev):

   -61.8952 -36.0978 -35.8691 -35.8469 -15.2892 -13.9890  -6.8231  -4.0362
    -3.6911  -3.4858  -2.8309  -2.3177  -1.2827

     occupation numbers 
     1.0000   1.0000   1.0000   1.0000   1.0000   1.0000   1.0000   1.0000
     1.0000   1.0000   1.0000   1.0000   1.0000

          k = 0.0476 0.1375 0.0000 ( 14858 PWs)   bands (ev):

   -61.8915 -36.0905 -35.9051 -35.8557 -15.1507 -13.9326  -6.6759  -4.3007
    -3.8180  -3.5500  -3.0616  -2.1855  -1.3639

     occupation numbers 
     1.0000   1.0000   1.0000   1.0000   1.0000   1.0000   1.0000   1.0000
     1.0000   1.0000   1.0000   1.0000   1.0000

          k = 0.0476 0.1925 0.0000 ( 14822 PWs)   bands (ev):

   -61.8864 -36.0805 -35.9547 -35.8678 -14.9519 -13.8518  -6.4904  -4.6148
    -4.1775  -3.3541  -3.3407  -2.1713  -1.5231

     occupation numbers 
     1.0000   1.0000   1.0000   1.0000   1.0000   1.0000   1.0000   1.0000
     1.0000   1.0000   1.0000   1.0000   1.0000

          k = 0.0476 0.2474 0.0000 ( 14793 PWs)   bands (ev):

   -61.8803 -36.0685 -36.0132 -35.8822 -14.7036 -13.7512  -6.3292  -4.8982
    -4.5540  -3.6190  -3.1245  -2.2795  -1.7580

     occupation numbers 
     1.0000   1.0000   1.0000   1.0000   1.0000   1.0000   1.0000   1.0000
     1.0000   1.0000   1.0000   1.0000   1.0000

          k = 0.0476 0.3024 0.0000 ( 14812 PWs)   bands (ev):

   -61.8737 -36.0754 -36.0556 -35.8975 -14.4208 -13.6375  -6.2961  -5.0603
    -4.9389  -3.8637  -2.8943  -2.4612  -1.9974

     occupation numbers 
     1.0000   1.0000   1.0000   1.0000   1.0000   1.0000   1.0000   1.0000
     1.0000   1.0000   1.0000   1.0000   1.0000

          k = 0.0476 0.3574 0.0000 ( 14790 PWs)   bands (ev):

   -61.8672 -36.1356 -36.0429 -35.9125 -14.1235 -13.5195  -6.4360  -5.3122
    -5.0973  -4.0608  -2.7090  -2.6593  -2.1176

     occupation numbers 
     1.0000   1.0000   1.0000   1.0000   1.0000   1.0000   1.0000   1.0000
     1.0000   1.0000   1.0000   1.0000   1.0000

          k = 0.0476 0.4124 0.0000 ( 14759 PWs)   bands (ev):

   -61.8615 -36.1886 -36.0317 -35.9257 -13.8375 -13.4082  -6.6604  -5.6458
    -5.1295  -4.2089  -2.8348  -2.5757  -2.0592

     occupation numbers 
     1.0000   1.0000   1.0000   1.0000   1.0000   1.0000   1.0000   1.0000
     1.0000   1.0000   1.0000   1.0000   1.0000

          k = 0.0476 0.4674 0.0000 ( 14731 PWs)   bands (ev):

   -61.8570 -36.2300 -36.0228 -35.9361 -13.5945 -13.3157  -6.8767  -5.9101
    -5.2085  -4.3113  -2.9674  -2.4471  -1.9112

     occupation numbers 
     1.0000   1.0000   1.0000   1.0000   1.0000   1.0000   1.0000   1.0000
     1.0000   1.0000   1.0000   1.0000   1.0000

          k = 0.0476 0.5224 0.0000 ( 14718 PWs)   bands (ev):

   -61.8541 -36.2562 -36.0172 -35.9427 -13.4289 -13.2542  -7.0294  -6.0800
    -5.2904  -4.3713  -3.0486  -2.3463  -1.7694

     occupation numbers 
     1.0000   1.0000   1.0000   1.0000   1.0000   1.0000   1.0000   1.0000
     1.0000   1.0000   1.0000   1.0000   1.0000

          k = 0.0476 0.5774 0.0000 ( 14714 PWs)   bands (ev):

   -61.8531 -36.2652 -36.0152 -35.9450 -13.3699 -13.2325  -7.0845  -6.1386
    -5.3240  -4.3910  -3.0758  -2.3098  -1.7098

     occupation numbers 
     1.0000   1.0000   1.0000   1.0000   1.0000   1.0000   1.0000   1.0000
     1.0000   1.0000   1.0000   1.0000   1.0000

          k = 0.0952 0.1650 0.0000 ( 14827 PWs)   bands (ev):

   -61.8872 -36.0821 -35.9454 -35.8672 -14.9842 -13.8648  -6.5149  -4.5655
    -4.0857  -3.3944  -3.3917  -2.0924  -1.4910

     occupation numbers 
     1.0000   1.0000   1.0000   1.0000   1.0000   1.0000   1.0000   1.0000
     1.0000   1.0000   1.0000   1.0000   1.0000

          k = 0.0952 0.2199 0.0000 ( 14813 PWs)   bands (ev):

   -61.8817 -36.0713 -35.9961 -35.8823 -14.7633 -13.7749  -6.3454  -4.8338
    -4.3833  -3.7486  -3.2130  -2.0969  -1.6877

     occupation numbers 
     1.0000   1.0000   1.0000   1.0000   1.0000   1.0000   1.0000   1.0000
     1.0000   1.0000   1.0000   1.0000   1.0000

          k = 0.0952 0.2749 0.0000 ( 14793 PWs)   bands (ev):

   -61.8755 -36.0591 -36.0525 -35.8994 -14.5009 -13.6685  -6.2526  -5.0169
    -4.7356  -4.0371  -3.0505  -2.2130  -1.9053

     occupation numbers 
     1.0000   1.0000   1.0000   1.0000   1.0000   1.0000   1.0000   1.0000
     1.0000   1.0000   1.0000   1.0000   1.0000

          k = 0.0952 0.3299 0.0000 ( 14799 PWs)   bands (ev):

   -61.8691 -36.1095 -36.0466 -35.9169 -14.2141 -13.5530  -6.3186  -5.1310
    -5.0610  -4.2233  -2.9644  -2.4030  -2.0320

     occupation numbers 
     1.0000   1.0000   1.0000   1.0000   1.0000   1.0000   1.0000   1.0000
     1.0000   1.0000   1.0000   1.0000   1.0000

          k = 0.0952 0.3849 0.0000 ( 14771 PWs)   bands (ev):

   -61.8632 -36.1624 -36.0349 -35.9333 -13.9256 -13.4383  -6.5021  -5.5159
    -5.0575  -4.3297  -2.9400  -2.6172  -2.0031

     occupation numbers 
     1.0000   1.0000   1.0000   1.0000   1.0000   1.0000   1.0000   1.0000
     1.0000   1.0000   1.0000   1.0000   1.0000

          k = 0.0952 0.4399 0.0000 ( 14747 PWs)   bands (ev):

   -61.8582 -36.2064 -36.0251 -35.9470 -13.6636 -13.3358  -6.7081  -5.8430
    -5.1119  -4.3822  -2.8869  -2.8155  -1.8770

     occupation numbers 
     1.0000   1.0000   1.0000   1.0000   1.0000   1.0000   1.0000   1.0000
     1.0000   1.0000   1.0000   1.0000   1.0000

          k = 0.0952 0.4949 0.0000 ( 14735 PWs)   bands (ev):

   -61.8546 -36.2379 -36.0180 -35.9568 -13.4609 -13.2580  -6.8763  -6.0795
    -5.2079  -4.4013  -2.9676  -2.8074  -1.7238

     occupation numbers 
     1.0000   1.0000   1.0000   1.0000   1.0000   1.0000   1.0000   1.0000
     1.0000   1.0000   1.0000   1.0000   1.0000

          k = 0.0952 0.5499 0.0000 ( 14714 PWs)   bands (ev):

   -61.8527 -36.2544 -36.0143 -35.9619 -13.3494 -13.2159  -6.9704  -6.2035
    -5.2771  -4.4048  -3.0506  -2.7553  -1.6141

     occupation numbers 
     1.0000   1.0000   1.0000   1.0000   1.0000   1.0000   1.0000   1.0000
     1.0000   1.0000   1.0000   1.0000   1.0000

          k = 0.1429 0.2474 0.0000 ( 14801 PWs)   bands (ev):

   -61.8761 -36.0603 -36.0435 -35.9011 -14.5280 -13.6789  -6.2374  -4.9974
    -4.6138  -4.1607  -3.1107  -2.1019  -1.8715

     occupation numbers 
     1.0000   1.0000   1.0000   1.0000   1.0000   1.0000   1.0000   1.0000
     1.0000   1.0000   1.0000   1.0000   1.0000

          k = 0.1429 0.3024 0.0000 ( 14798 PWs)   bands (ev):

   -61.8701 -36.0930 -36.0486 -35.9221 -14.2608 -13.5700  -6.2461  -5.0342
    -4.9683  -4.4029  -3.1193  -2.2150  -1.9883

     occupation numbers 
     1.0000   1.0000   1.0000   1.0000   1.0000   1.0000   1.0000   1.0000
     1.0000   1.0000   1.0000   1.0000   1.0000

          k = 0.1429 0.3574 0.0000 ( 14791 PWs)   bands (ev):

   -61.8642 -36.1406 -36.0370 -35.9432 -13.9811 -13.4564  -6.3710  -5.3930
    -4.9870  -4.4863  -3.2287  -2.4087  -1.9826

     occupation numbers 
     1.0000   1.0000   1.0000   1.0000   1.0000   1.0000   1.0000   1.0000
     1.0000   1.0000   1.0000   1.0000   1.0000

          k = 0.1429 0.4124 0.0000 ( 14771 PWs)   bands (ev):

   -61.8590 -36.1823 -36.0268 -35.9621 -13.7138 -13.3486  -6.5362  -5.7808
    -4.9877  -4.4932  -3.3137  -2.6359  -1.8854

     occupation numbers 
     1.0000   1.0000   1.0000   1.0000   1.0000   1.0000   1.0000   1.0000
     1.0000   1.0000   1.0000   1.0000   1.0000

          k = 0.1429 0.4674 0.0000 ( 14749 PWs)   bands (ev):

   -61.8549 -36.2147 -36.0187 -35.9770 -13.4884 -13.2587  -6.6837  -6.0844
    -5.0797  -4.4594  -3.3157  -2.8505  -1.7359

     occupation numbers 
     1.0000   1.0000   1.0000   1.0000   1.0000   1.0000   1.0000   1.0000
     1.0000   1.0000   1.0000   1.0000   1.0000

          k = 0.1429 0.5224 0.0000 ( 14744 PWs)   bands (ev):

   -61.8523 -36.2352 -36.0136 -35.9866 -13.3361 -13.1985  -6.7832  -6.2773
    -5.1883  -4.4154  -3.2855  -3.0082  -1.5869

     occupation numbers 
     1.0000   1.0000   1.0000   1.0000   1.0000   1.0000   1.0000   1.0000
     1.0000   1.0000   1.0000   1.0000   1.0000

          k = 0.1429 0.5774 0.0000 ( 14722 PWs)   bands (ev):

   -61.8514 -36.2423 -36.0118 -35.9899 -13.2820 -13.1773  -6.8183  -6.3434
    -5.2339  -4.3950  -3.2712  -3.0673  -1.5216

     occupation numbers 
     1.0000   1.0000   1.0000   1.0000   1.0000   1.0000   1.0000   1.0000
     1.0000   1.0000   1.0000   1.0000   1.0000

          k = 0.1905 0.3299 0.0000 ( 14781 PWs)   bands (ev):

   -61.8646 -36.1318 -36.0378 -35.9479 -14.0001 -13.4625  -6.3193  -5.3344
    -4.9552  -4.5624  -3.3419  -2.3228  -1.9784

     occupation numbers 
     1.0000   1.0000   1.0000   1.0000   1.0000   1.0000   1.0000   1.0000
     1.0000   1.0000   1.0000   1.0000   1.0000

          k = 0.1905 0.3849 0.0000 ( 14753 PWs)   bands (ev):

   -61.8594 -36.1659 -36.0277 -35.9738 -13.7401 -13.3548  -6.4245  -5.7388
    -4.8773  -4.5745  -3.6037  -2.5147  -1.9007

     occupation numbers 
     1.0000   1.0000   1.0000   1.0000   1.0000   1.0000   1.0000   1.0000
     1.0000   1.0000   1.0000   1.0000   1.0000

          k = 0.1905 0.4399 0.0000 ( 14749 PWs)   bands (ev):

   -61.8551 -36.1933 -36.0192 -35.9966 -13.5068 -13.2580  -6.5159  -6.0882
    -4.9121  -4.5149  -3.7710  -2.7444  -1.7644

     occupation numbers 
     1.0000   1.0000   1.0000   1.0000   1.0000   1.0000   1.0000   1.0000
     1.0000   1.0000   1.0000   1.0000   1.0000

          k = 0.1905 0.4949 0.0000 ( 14736 PWs)   bands (ev):

   -61.8520 -36.2123 -36.0137 -36.0130 -13.3287 -13.1841  -6.5731  -6.3404
    -5.0497  -4.4259  -3.8190  -2.9581  -1.5924

     occupation numbers 
     1.0000   1.0000   1.0000   1.0000   1.0000   1.0000   1.0000   1.0000
     1.0000   1.0000   1.0000   1.0000   1.0000

          k = 0.1905 0.5499 0.0000 ( 14754 PWs)   bands (ev):

   -61.8504 -36.2221 -36.0227 -36.0098 -13.2317 -13.1438  -6.5968  -6.4724
    -5.1634  -4.3561  -3.8210  -3.0938  -1.4614

     occupation numbers 
     1.0000   1.0000   1.0000   1.0000   1.0000   1.0000   1.0000   1.0000
     1.0000   1.0000   1.0000   1.0000   1.0000

          k = 0.2381 0.4124 0.0000 ( 14762 PWs)   bands (ev):

   -61.8552 -36.1840 -36.0193 -36.0053 -13.5133 -13.2576  -6.4480  -6.0893
    -4.8019  -4.5374  -3.9900  -2.7014  -1.7779

     occupation numbers 
     1.0000   1.0000   1.0000   1.0000   1.0000   1.0000   1.0000   1.0000
     1.0000   1.0000   1.0000   1.0000   1.0000

          k = 0.2381 0.4674 0.0000 ( 14739 PWs)   bands (ev):

   -61.8519 -36.1948 -36.0335 -36.0128 -13.3256 -13.1758  -6.4258  -6.3765
    -4.8648  -4.4335  -4.2470  -2.9229  -1.6026

     occupation numbers 
     1.0000   1.0000   1.0000   1.0000   1.0000   1.0000   1.0000   1.0000
     1.0000   1.0000   1.0000   1.0000   1.0000

          k = 0.2381 0.5224 0.0000 ( 14764 PWs)   bands (ev):

   -61.8497 -36.1996 -36.0535 -36.0086 -13.2009 -13.1208  -6.5625  -6.3713
    -5.0550  -4.3191  -4.3167  -3.1165  -1.4219

     occupation numbers 
     1.0000   1.0000   1.0000   1.0000   1.0000   1.0000   1.0000   1.0000
     1.0000   1.0000   1.0000   1.0000   1.0000

          k = 0.2381 0.5774 0.0000 ( 14776 PWs)   bands (ev):

   -61.8490 -36.2007 -36.0609 -36.0071 -13.1571 -13.1013  -6.6267  -6.3387
    -5.1542  -4.3275  -4.2612  -3.1987  -1.3397

     occupation numbers 
     1.0000   1.0000   1.0000   1.0000   1.0000   1.0000   1.0000   1.0000
     1.0000   1.0000   1.0000   1.0000   1.0000

          k = 0.2857 0.4949 0.0000 ( 14730 PWs)   bands (ev):

   -61.8495 -36.1880 -36.0679 -36.0081 -13.1906 -13.1126  -6.5947  -6.2673
    -4.9437  -4.5904  -4.3005  -3.1252  -1.4073

     occupation numbers 
     1.0000   1.0000   1.0000   1.0000   1.0000   1.0000   1.0000   1.0000
     1.0000   1.0000   1.0000   1.0000   1.0000

          k = 0.2857 0.5499 0.0000 ( 14738 PWs)   bands (ev):

   -61.8483 -36.1787 -36.0917 -36.0057 -13.1184 -13.0780  -6.7112  -6.0967
    -5.1875  -4.6622  -4.1862  -3.2764  -1.2554

     occupation numbers 
     1.0000   1.0000   1.0000   1.0000   1.0000   1.0000   1.0000   1.0000
     1.0000   1.0000   1.0000   1.0000   1.0000

          k = 0.3333 0.5774 0.0000 ( 14760 PWs)   bands (ev):

   -61.8478 -36.1630 -36.1134 -36.0048 -13.0899 -13.0629  -6.7634  -5.8971
    -5.3732  -4.7462  -4.1206  -3.3520  -1.1798

     occupation numbers 
     1.0000   1.0000   1.0000   1.0000   1.0000   1.0000   1.0000   1.0000
     1.0000   1.0000   1.0000   1.0000   1.0000

     highest occupied level (ev):    -1.1798

!    total energy              =    -184.83183137 Ry
     estimated scf accuracy    <          7.4E-16 Ry

     convergence has been achieved in  17 iterations

     Forces acting on atoms (cartesian axes, Ry/au):

     atom    1 type  1   force =     0.00000000   -0.00000000    0.00000000
     atom    2 type  2   force =     0.00000000   -0.00000000    0.00000383
     atom    3 type  2   force =     0.00000000    0.00000000   -0.00000383
     The non-local contrib.  to forces
     atom    1 type  1   force =     0.00000000   -0.00000000    0.00000000
     atom    2 type  2   force =     0.00000000    0.00000000   -0.25587613
     atom    3 type  2   force =    -0.00000000    0.00000000    0.25587613
     The ionic contribution  to forces
     atom    1 type  1   force =     0.00000001    0.00000097    0.00000000
     atom    2 type  2   force =    -0.00000000   -0.00000048   37.43241547
     atom    3 type  2   force =    -0.00000000   -0.00000048  -37.43241547
     The local contribution  to forces
     atom    1 type  1   force =     0.00000000    0.00002380    0.00000000
     atom    2 type  2   force =    -0.00000001    0.00000001  -37.18071887
     atom    3 type  2   force =    -0.00000001    0.00000001   37.18071887
     The core correction contribution to forces
     atom    1 type  1   force =     0.00000000   -0.00000040   -0.00000000
     atom    2 type  2   force =     0.00000000   -0.00000000    0.00418330
     atom    3 type  2   force =     0.00000000   -0.00000000   -0.00418330
     The Hubbard contrib.    to forces
     atom    1 type  1   force =     0.00000000    0.00000000    0.00000000
     atom    2 type  2   force =     0.00000000    0.00000000    0.00000000
     atom    3 type  2   force =     0.00000000    0.00000000    0.00000000
     The SCF correction term to forces
     atom    1 type  1   force =     0.00000000   -0.00000000   -0.00000000
     atom    2 type  2   force =    -0.00000000   -0.00000000    0.00000005
     atom    3 type  2   force =    -0.00000000   -0.00000000   -0.00000005

     Total force =     0.000005     Total SCF correction =     0.000000

     Entering Dynamics:    iteration =     8

     <vel(dt)|acc(dt)> =  -1.00000000

ATOMIC_POSITIONS (crystal)
Mo               0.3333333000        0.6666666000        0.5000000000    0   0   0
S                0.6666666670        0.3333333330        0.5735917119    0   0   1
S                0.6666666670        0.3333333330        0.4264082881    0   0   1



     Writing config-only to output data dir ./tmp/MoS2.save/ :
     XML data file
     NEW-OLD atomic charge density approx. for the potential

     total cpu time spent up to now is      340.1 secs

     per-process dynamical memory:    73.2 Mb

     Self-consistent Calculation

     iteration #  1     ecut=    80.00 Ry     beta= 0.20
     Davidson diagonalization with overlap

---- Real-time Memory Report at c_bands before calling an iterative solver
            93 MiB given to the printing process from OS
            71 MiB allocation reported by mallinfo(arena+hblkhd)
        243589 MiB available memory on the node where the printing process lives
------------------
     ethr =  1.00E-06,  avg # of iterations =  1.0

     Threshold (ethr) on eigenvalues was too large:
     Diagonalizing with lowered threshold

     Davidson diagonalization with overlap

---- Real-time Memory Report at c_bands before calling an iterative solver
            93 MiB given to the printing process from OS
            71 MiB allocation reported by mallinfo(arena+hblkhd)
        243588 MiB available memory on the node where the printing process lives
------------------
     ethr =  1.00E-13,  avg # of iterations =  4.5

     total cpu time spent up to now is      342.5 secs

     total energy              =    -184.83183137 Ry
     estimated scf accuracy    <          7.8E-13 Ry

     iteration #  2     ecut=    80.00 Ry     beta= 0.20
     Davidson diagonalization with overlap

---- Real-time Memory Report at c_bands before calling an iterative solver
            93 MiB given to the printing process from OS
            71 MiB allocation reported by mallinfo(arena+hblkhd)
        243587 MiB available memory on the node where the printing process lives
------------------
     ethr =  1.00E-13,  avg # of iterations =  1.0

     total cpu time spent up to now is      343.4 secs

     total energy              =    -184.83183137 Ry
     estimated scf accuracy    <          5.2E-13 Ry

     iteration #  3     ecut=    80.00 Ry     beta= 0.20
     Davidson diagonalization with overlap

---- Real-time Memory Report at c_bands before calling an iterative solver
            93 MiB given to the printing process from OS
            71 MiB allocation reported by mallinfo(arena+hblkhd)
        243587 MiB available memory on the node where the printing process lives
------------------
     ethr =  1.00E-13,  avg # of iterations =  1.0

     total cpu time spent up to now is      344.4 secs

     total energy              =    -184.83183137 Ry
     estimated scf accuracy    <          6.1E-14 Ry

     iteration #  4     ecut=    80.00 Ry     beta= 0.20
     Davidson diagonalization with overlap

---- Real-time Memory Report at c_bands before calling an iterative solver
            93 MiB given to the printing process from OS
            71 MiB allocation reported by mallinfo(arena+hblkhd)
        243587 MiB available memory on the node where the printing process lives
------------------
     ethr =  1.00E-13,  avg # of iterations =  1.0

     total cpu time spent up to now is      345.3 secs

     total energy              =    -184.83183137 Ry
     estimated scf accuracy    <          5.9E-14 Ry

     iteration #  5     ecut=    80.00 Ry     beta= 0.20
     Davidson diagonalization with overlap

---- Real-time Memory Report at c_bands before calling an iterative solver
            93 MiB given to the printing process from OS
            71 MiB allocation reported by mallinfo(arena+hblkhd)
        243587 MiB available memory on the node where the printing process lives
------------------
     ethr =  1.00E-13,  avg # of iterations =  1.0

     total cpu time spent up to now is      346.2 secs

     total energy              =    -184.83183137 Ry
     estimated scf accuracy    <          1.4E-14 Ry

     iteration #  6     ecut=    80.00 Ry     beta= 0.20
     Davidson diagonalization with overlap

---- Real-time Memory Report at c_bands before calling an iterative solver
            93 MiB given to the printing process from OS
            71 MiB allocation reported by mallinfo(arena+hblkhd)
        243587 MiB available memory on the node where the printing process lives
------------------
     ethr =  1.00E-13,  avg # of iterations =  1.0

     total cpu time spent up to now is      347.2 secs

     total energy              =    -184.83183137 Ry
     estimated scf accuracy    <          5.3E-14 Ry

     iteration #  7     ecut=    80.00 Ry     beta= 0.20
     Davidson diagonalization with overlap

---- Real-time Memory Report at c_bands before calling an iterative solver
            93 MiB given to the printing process from OS
            71 MiB allocation reported by mallinfo(arena+hblkhd)
        243587 MiB available memory on the node where the printing process lives
------------------
     ethr =  1.00E-13,  avg # of iterations =  1.0

     total cpu time spent up to now is      348.1 secs

     total energy              =    -184.83183137 Ry
     estimated scf accuracy    <          3.0E-15 Ry

     iteration #  8     ecut=    80.00 Ry     beta= 0.20
     Davidson diagonalization with overlap

---- Real-time Memory Report at c_bands before calling an iterative solver
            93 MiB given to the printing process from OS
            71 MiB allocation reported by mallinfo(arena+hblkhd)
        243579 MiB available memory on the node where the printing process lives
------------------
     ethr =  1.00E-13,  avg # of iterations =  1.0

     total cpu time spent up to now is      349.1 secs

     total energy              =    -184.83183137 Ry
     estimated scf accuracy    <          2.0E-15 Ry

     iteration #  9     ecut=    80.00 Ry     beta= 0.20
     Davidson diagonalization with overlap

---- Real-time Memory Report at c_bands before calling an iterative solver
            93 MiB given to the printing process from OS
            71 MiB allocation reported by mallinfo(arena+hblkhd)
        243579 MiB available memory on the node where the printing process lives
------------------
     ethr =  1.00E-13,  avg # of iterations =  1.0

     total cpu time spent up to now is      350.0 secs

     End of self-consistent calculation

          k = 0.0000 0.0000 0.0000 ( 14855 PWs)   bands (ev):

   -61.8982 -36.1035 -35.8402 -35.8402 -15.3962 -14.0325  -6.9436  -3.8025
    -3.8025  -3.0138  -2.6458  -2.6458  -1.2395

     occupation numbers 
     1.0000   1.0000   1.0000   1.0000   1.0000   1.0000   1.0000   1.0000
     1.0000   1.0000   1.0000   1.0000   1.0000

          k = 0.0000 0.0550 0.0000 ( 14883 PWs)   bands (ev):

   -61.8972 -36.1016 -35.8501 -35.8425 -15.3602 -14.0179  -6.9025  -3.8843
    -3.7647  -3.2325  -2.7048  -2.4783  -1.2521

     occupation numbers 
     1.0000   1.0000   1.0000   1.0000   1.0000   1.0000   1.0000   1.0000
     1.0000   1.0000   1.0000   1.0000   1.0000

          k = 0.0000 0.1100 0.0000 ( 14863 PWs)   bands (ev):

   -61.8943 -36.0959 -35.8786 -35.8489 -15.2541 -13.9747  -6.7850  -4.1077
    -3.6539  -3.5900  -2.8662  -2.2889  -1.3009

     occupation numbers 
     1.0000   1.0000   1.0000   1.0000   1.0000   1.0000   1.0000   1.0000
     1.0000   1.0000   1.0000   1.0000   1.0000

          k = 0.0000 0.1650 0.0000 ( 14855 PWs)   bands (ev):

   -61.8898 -36.0871 -35.9230 -35.8590 -15.0833 -13.9052  -6.6103  -4.4179
    -3.9725  -3.4778  -3.0947  -2.2207  -1.4148

     occupation numbers 
     1.0000   1.0000   1.0000   1.0000   1.0000   1.0000   1.0000   1.0000
     1.0000   1.0000   1.0000   1.0000   1.0000

          k = 0.0000 0.2199 0.0000 ( 14815 PWs)   bands (ev):

   -61.8840 -36.0758 -35.9791 -35.8718 -14.8567 -13.8133  -6.4221  -4.7421
    -4.3628  -3.3529  -3.2496  -2.2913  -1.6168

     occupation numbers 
     1.0000   1.0000   1.0000   1.0000   1.0000   1.0000   1.0000   1.0000
     1.0000   1.0000   1.0000   1.0000   1.0000

          k = 0.0000 0.2749 0.0000 ( 14799 PWs)   bands (ev):

   -61.8775 -36.0631 -36.0417 -35.8862 -14.5873 -13.7047  -6.3062  -4.9913
    -4.7530  -3.6112  -2.9892  -2.4556  -1.8787

     occupation numbers 
     1.0000   1.0000   1.0000   1.0000   1.0000   1.0000   1.0000   1.0000
     1.0000   1.0000   1.0000   1.0000   1.0000

          k = 0.0000 0.3299 0.0000 ( 14811 PWs)   bands (ev):

   -61.8708 -36.1051 -36.0500 -35.9008 -14.2924 -13.5871  -6.3612  -5.1315
    -5.0958  -3.8488  -2.7218  -2.6478  -2.1080

     occupation numbers 
     1.0000   1.0000   1.0000   1.0000   1.0000   1.0000   1.0000   1.0000
     1.0000   1.0000   1.0000   1.0000   1.0000

          k = 0.0000 0.3849 0.0000 ( 14770 PWs)   bands (ev):

   -61.8646 -36.1638 -36.0378 -35.9145 -13.9950 -13.4705  -6.5610  -5.4792
    -5.1241  -4.0516  -2.8205  -2.4760  -2.2010

     occupation numbers 
     1.0000   1.0000   1.0000   1.0000   1.0000   1.0000   1.0000   1.0000
     1.0000   1.0000   1.0000   1.0000   1.0000

          k = 0.0000 0.4399 0.0000 ( 14722 PWs)   bands (ev):

   -61.8594 -36.2126 -36.0275 -35.9259 -13.7239 -13.3668  -6.7971  -5.7720
    -5.1825  -4.2104  -2.9522  -2.2777  -2.1285

     occupation numbers 
     1.0000   1.0000   1.0000   1.0000   1.0000   1.0000   1.0000   1.0000
     1.0000   1.0000   1.0000   1.0000   1.0000

          k = 0.0000 0.4949 0.0000 ( 14716 PWs)   bands (ev):

   -61.8556 -36.2476 -36.0201 -35.9341 -13.5135 -13.2882  -6.9936  -5.9847
    -5.2684  -4.3192  -3.0379  -2.1428  -1.9699

     occupation numbers 
     1.0000   1.0000   1.0000   1.0000   1.0000   1.0000   1.0000   1.0000
     1.0000   1.0000   1.0000   1.0000   1.0000

          k = 0.0000 0.5499 0.0000 ( 14720 PWs)   bands (ev):

   -61.8536 -36.2658 -36.0162 -35.9384 -13.3972 -13.2457  -7.1045  -6.0968
    -5.3289  -4.3745  -3.0796  -2.0759  -1.8483

     occupation numbers 
     1.0000   1.0000   1.0000   1.0000   1.0000   1.0000   1.0000   1.0000
     1.0000   1.0000   1.0000   1.0000   1.0000

          k = 0.0476 0.0825 0.0000 ( 14875 PWs)   bands (ev):

   -61.8952 -36.0978 -35.8691 -35.8469 -15.2892 -13.9890  -6.8231  -4.0362
    -3.6910  -3.4858  -2.8308  -2.3177  -1.2827

     occupation numbers 
     1.0000   1.0000   1.0000   1.0000   1.0000   1.0000   1.0000   1.0000
     1.0000   1.0000   1.0000   1.0000   1.0000

          k = 0.0476 0.1375 0.0000 ( 14858 PWs)   bands (ev):

   -61.8915 -36.0905 -35.9051 -35.8557 -15.1507 -13.9326  -6.6759  -4.3007
    -3.8180  -3.5500  -3.0616  -2.1855  -1.3639

     occupation numbers 
     1.0000   1.0000   1.0000   1.0000   1.0000   1.0000   1.0000   1.0000
     1.0000   1.0000   1.0000   1.0000   1.0000

          k = 0.0476 0.1925 0.0000 ( 14822 PWs)   bands (ev):

   -61.8864 -36.0805 -35.9547 -35.8678 -14.9519 -13.8518  -6.4904  -4.6148
    -4.1775  -3.3541  -3.3407  -2.1713  -1.5231

     occupation numbers 
     1.0000   1.0000   1.0000   1.0000   1.0000   1.0000   1.0000   1.0000
     1.0000   1.0000   1.0000   1.0000   1.0000

          k = 0.0476 0.2474 0.0000 ( 14793 PWs)   bands (ev):

   -61.8803 -36.0685 -36.0132 -35.8822 -14.7036 -13.7512  -6.3292  -4.8982
    -4.5540  -3.6190  -3.1244  -2.2795  -1.7580

     occupation numbers 
     1.0000   1.0000   1.0000   1.0000   1.0000   1.0000   1.0000   1.0000
     1.0000   1.0000   1.0000   1.0000   1.0000

          k = 0.0476 0.3024 0.0000 ( 14812 PWs)   bands (ev):

   -61.8737 -36.0754 -36.0556 -35.8975 -14.4208 -13.6375  -6.2960  -5.0603
    -4.9389  -3.8637  -2.8943  -2.4612  -1.9974

     occupation numbers 
     1.0000   1.0000   1.0000   1.0000   1.0000   1.0000   1.0000   1.0000
     1.0000   1.0000   1.0000   1.0000   1.0000

          k = 0.0476 0.3574 0.0000 ( 14790 PWs)   bands (ev):

   -61.8672 -36.1356 -36.0429 -35.9125 -14.1235 -13.5195  -6.4360  -5.3122
    -5.0973  -4.0608  -2.7090  -2.6593  -2.1176

     occupation numbers 
     1.0000   1.0000   1.0000   1.0000   1.0000   1.0000   1.0000   1.0000
     1.0000   1.0000   1.0000   1.0000   1.0000

          k = 0.0476 0.4124 0.0000 ( 14759 PWs)   bands (ev):

   -61.8615 -36.1886 -36.0317 -35.9257 -13.8375 -13.4082  -6.6604  -5.6458
    -5.1295  -4.2089  -2.8348  -2.5757  -2.0592

     occupation numbers 
     1.0000   1.0000   1.0000   1.0000   1.0000   1.0000   1.0000   1.0000
     1.0000   1.0000   1.0000   1.0000   1.0000

          k = 0.0476 0.4674 0.0000 ( 14731 PWs)   bands (ev):

   -61.8570 -36.2300 -36.0228 -35.9361 -13.5945 -13.3157  -6.8767  -5.9101
    -5.2085  -4.3113  -2.9674  -2.4471  -1.9112

     occupation numbers 
     1.0000   1.0000   1.0000   1.0000   1.0000   1.0000   1.0000   1.0000
     1.0000   1.0000   1.0000   1.0000   1.0000

          k = 0.0476 0.5224 0.0000 ( 14718 PWs)   bands (ev):

   -61.8541 -36.2562 -36.0172 -35.9427 -13.4289 -13.2542  -7.0294  -6.0800
    -5.2904  -4.3712  -3.0486  -2.3463  -1.7694

     occupation numbers 
     1.0000   1.0000   1.0000   1.0000   1.0000   1.0000   1.0000   1.0000
     1.0000   1.0000   1.0000   1.0000   1.0000

          k = 0.0476 0.5774 0.0000 ( 14714 PWs)   bands (ev):

   -61.8531 -36.2652 -36.0152 -35.9450 -13.3699 -13.2325  -7.0845  -6.1386
    -5.3240  -4.3910  -3.0758  -2.3098  -1.7098

     occupation numbers 
     1.0000   1.0000   1.0000   1.0000   1.0000   1.0000   1.0000   1.0000
     1.0000   1.0000   1.0000   1.0000   1.0000

          k = 0.0952 0.1650 0.0000 ( 14827 PWs)   bands (ev):

   -61.8872 -36.0821 -35.9454 -35.8672 -14.9841 -13.8648  -6.5149  -4.5655
    -4.0857  -3.3944  -3.3917  -2.0924  -1.4910

     occupation numbers 
     1.0000   1.0000   1.0000   1.0000   1.0000   1.0000   1.0000   1.0000
     1.0000   1.0000   1.0000   1.0000   1.0000

          k = 0.0952 0.2199 0.0000 ( 14813 PWs)   bands (ev):

   -61.8817 -36.0713 -35.9961 -35.8823 -14.7633 -13.7749  -6.3454  -4.8338
    -4.3833  -3.7486  -3.2129  -2.0969  -1.6877

     occupation numbers 
     1.0000   1.0000   1.0000   1.0000   1.0000   1.0000   1.0000   1.0000
     1.0000   1.0000   1.0000   1.0000   1.0000

          k = 0.0952 0.2749 0.0000 ( 14793 PWs)   bands (ev):

   -61.8755 -36.0591 -36.0525 -35.8994 -14.5008 -13.6685  -6.2526  -5.0169
    -4.7356  -4.0371  -3.0505  -2.2130  -1.9053

     occupation numbers 
     1.0000   1.0000   1.0000   1.0000   1.0000   1.0000   1.0000   1.0000
     1.0000   1.0000   1.0000   1.0000   1.0000

          k = 0.0952 0.3299 0.0000 ( 14799 PWs)   bands (ev):

   -61.8691 -36.1095 -36.0466 -35.9169 -14.2141 -13.5530  -6.3186  -5.1310
    -5.0610  -4.2233  -2.9644  -2.4030  -2.0320

     occupation numbers 
     1.0000   1.0000   1.0000   1.0000   1.0000   1.0000   1.0000   1.0000
     1.0000   1.0000   1.0000   1.0000   1.0000

          k = 0.0952 0.3849 0.0000 ( 14771 PWs)   bands (ev):

   -61.8632 -36.1624 -36.0349 -35.9333 -13.9256 -13.4383  -6.5021  -5.5159
    -5.0575  -4.3297  -2.9400  -2.6172  -2.0030

     occupation numbers 
     1.0000   1.0000   1.0000   1.0000   1.0000   1.0000   1.0000   1.0000
     1.0000   1.0000   1.0000   1.0000   1.0000

          k = 0.0952 0.4399 0.0000 ( 14747 PWs)   bands (ev):

   -61.8582 -36.2064 -36.0251 -35.9469 -13.6636 -13.3358  -6.7081  -5.8430
    -5.1119  -4.3822  -2.8869  -2.8155  -1.8769

     occupation numbers 
     1.0000   1.0000   1.0000   1.0000   1.0000   1.0000   1.0000   1.0000
     1.0000   1.0000   1.0000   1.0000   1.0000

          k = 0.0952 0.4949 0.0000 ( 14735 PWs)   bands (ev):

   -61.8546 -36.2379 -36.0180 -35.9568 -13.4609 -13.2580  -6.8763  -6.0795
    -5.2079  -4.4013  -2.9676  -2.8074  -1.7238

     occupation numbers 
     1.0000   1.0000   1.0000   1.0000   1.0000   1.0000   1.0000   1.0000
     1.0000   1.0000   1.0000   1.0000   1.0000

          k = 0.0952 0.5499 0.0000 ( 14714 PWs)   bands (ev):

   -61.8527 -36.2544 -36.0143 -35.9619 -13.3494 -13.2159  -6.9704  -6.2035
    -5.2771  -4.4048  -3.0507  -2.7553  -1.6141

     occupation numbers 
     1.0000   1.0000   1.0000   1.0000   1.0000   1.0000   1.0000   1.0000
     1.0000   1.0000   1.0000   1.0000   1.0000

          k = 0.1429 0.2474 0.0000 ( 14801 PWs)   bands (ev):

   -61.8761 -36.0603 -36.0435 -35.9011 -14.5280 -13.6789  -6.2374  -4.9973
    -4.6138  -4.1607  -3.1107  -2.1019  -1.8715

     occupation numbers 
     1.0000   1.0000   1.0000   1.0000   1.0000   1.0000   1.0000   1.0000
     1.0000   1.0000   1.0000   1.0000   1.0000

          k = 0.1429 0.3024 0.0000 ( 14798 PWs)   bands (ev):

   -61.8701 -36.0930 -36.0486 -35.9221 -14.2608 -13.5700  -6.2461  -5.0342
    -4.9682  -4.4029  -3.1193  -2.2150  -1.9883

     occupation numbers 
     1.0000   1.0000   1.0000   1.0000   1.0000   1.0000   1.0000   1.0000
     1.0000   1.0000   1.0000   1.0000   1.0000

          k = 0.1429 0.3574 0.0000 ( 14791 PWs)   bands (ev):

   -61.8642 -36.1406 -36.0370 -35.9432 -13.9811 -13.4564  -6.3710  -5.3930
    -4.9870  -4.4863  -3.2287  -2.4087  -1.9825

     occupation numbers 
     1.0000   1.0000   1.0000   1.0000   1.0000   1.0000   1.0000   1.0000
     1.0000   1.0000   1.0000   1.0000   1.0000

          k = 0.1429 0.4124 0.0000 ( 14771 PWs)   bands (ev):

   -61.8590 -36.1823 -36.0268 -35.9621 -13.7138 -13.3486  -6.5361  -5.7808
    -4.9877  -4.4932  -3.3137  -2.6359  -1.8853

     occupation numbers 
     1.0000   1.0000   1.0000   1.0000   1.0000   1.0000   1.0000   1.0000
     1.0000   1.0000   1.0000   1.0000   1.0000

          k = 0.1429 0.4674 0.0000 ( 14749 PWs)   bands (ev):

   -61.8549 -36.2147 -36.0187 -35.9770 -13.4884 -13.2587  -6.6837  -6.0844
    -5.0796  -4.4594  -3.3157  -2.8505  -1.7359

     occupation numbers 
     1.0000   1.0000   1.0000   1.0000   1.0000   1.0000   1.0000   1.0000
     1.0000   1.0000   1.0000   1.0000   1.0000

          k = 0.1429 0.5224 0.0000 ( 14744 PWs)   bands (ev):

   -61.8523 -36.2352 -36.0136 -35.9866 -13.3361 -13.1985  -6.7832  -6.2773
    -5.1883  -4.4154  -3.2855  -3.0082  -1.5869

     occupation numbers 
     1.0000   1.0000   1.0000   1.0000   1.0000   1.0000   1.0000   1.0000
     1.0000   1.0000   1.0000   1.0000   1.0000

          k = 0.1429 0.5774 0.0000 ( 14722 PWs)   bands (ev):

   -61.8514 -36.2423 -36.0118 -35.9899 -13.2820 -13.1773  -6.8183  -6.3434
    -5.2339  -4.3950  -3.2712  -3.0673  -1.5216

     occupation numbers 
     1.0000   1.0000   1.0000   1.0000   1.0000   1.0000   1.0000   1.0000
     1.0000   1.0000   1.0000   1.0000   1.0000

          k = 0.1905 0.3299 0.0000 ( 14781 PWs)   bands (ev):

   -61.8646 -36.1318 -36.0378 -35.9479 -14.0001 -13.4625  -6.3193  -5.3344
    -4.9552  -4.5624  -3.3419  -2.3228  -1.9784

     occupation numbers 
     1.0000   1.0000   1.0000   1.0000   1.0000   1.0000   1.0000   1.0000
     1.0000   1.0000   1.0000   1.0000   1.0000

          k = 0.1905 0.3849 0.0000 ( 14753 PWs)   bands (ev):

   -61.8594 -36.1659 -36.0277 -35.9738 -13.7401 -13.3548  -6.4245  -5.7388
    -4.8773  -4.5745  -3.6037  -2.5147  -1.9007

     occupation numbers 
     1.0000   1.0000   1.0000   1.0000   1.0000   1.0000   1.0000   1.0000
     1.0000   1.0000   1.0000   1.0000   1.0000

          k = 0.1905 0.4399 0.0000 ( 14749 PWs)   bands (ev):

   -61.8551 -36.1933 -36.0192 -35.9966 -13.5068 -13.2580  -6.5159  -6.0881
    -4.9121  -4.5149  -3.7710  -2.7444  -1.7644

     occupation numbers 
     1.0000   1.0000   1.0000   1.0000   1.0000   1.0000   1.0000   1.0000
     1.0000   1.0000   1.0000   1.0000   1.0000

          k = 0.1905 0.4949 0.0000 ( 14736 PWs)   bands (ev):

   -61.8520 -36.2123 -36.0137 -36.0130 -13.3287 -13.1841  -6.5730  -6.3404
    -5.0497  -4.4259  -3.8190  -2.9581  -1.5924

     occupation numbers 
     1.0000   1.0000   1.0000   1.0000   1.0000   1.0000   1.0000   1.0000
     1.0000   1.0000   1.0000   1.0000   1.0000

          k = 0.1905 0.5499 0.0000 ( 14754 PWs)   bands (ev):

   -61.8504 -36.2221 -36.0227 -36.0098 -13.2317 -13.1438  -6.5968  -6.4724
    -5.1634  -4.3561  -3.8210  -3.0938  -1.4614

     occupation numbers 
     1.0000   1.0000   1.0000   1.0000   1.0000   1.0000   1.0000   1.0000
     1.0000   1.0000   1.0000   1.0000   1.0000

          k = 0.2381 0.4124 0.0000 ( 14762 PWs)   bands (ev):

   -61.8552 -36.1840 -36.0193 -36.0053 -13.5133 -13.2576  -6.4480  -6.0893
    -4.8019  -4.5374  -3.9900  -2.7014  -1.7778

     occupation numbers 
     1.0000   1.0000   1.0000   1.0000   1.0000   1.0000   1.0000   1.0000
     1.0000   1.0000   1.0000   1.0000   1.0000

          k = 0.2381 0.4674 0.0000 ( 14739 PWs)   bands (ev):

   -61.8519 -36.1948 -36.0335 -36.0128 -13.3256 -13.1758  -6.4258  -6.3765
    -4.8647  -4.4335  -4.2469  -2.9229  -1.6026

     occupation numbers 
     1.0000   1.0000   1.0000   1.0000   1.0000   1.0000   1.0000   1.0000
     1.0000   1.0000   1.0000   1.0000   1.0000

          k = 0.2381 0.5224 0.0000 ( 14764 PWs)   bands (ev):

   -61.8497 -36.1996 -36.0535 -36.0086 -13.2009 -13.1208  -6.5625  -6.3713
    -5.0550  -4.3191  -4.3167  -3.1165  -1.4219

     occupation numbers 
     1.0000   1.0000   1.0000   1.0000   1.0000   1.0000   1.0000   1.0000
     1.0000   1.0000   1.0000   1.0000   1.0000

          k = 0.2381 0.5774 0.0000 ( 14776 PWs)   bands (ev):

   -61.8490 -36.2007 -36.0609 -36.0071 -13.1571 -13.1013  -6.6267  -6.3387
    -5.1542  -4.3275  -4.2612  -3.1987  -1.3397

     occupation numbers 
     1.0000   1.0000   1.0000   1.0000   1.0000   1.0000   1.0000   1.0000
     1.0000   1.0000   1.0000   1.0000   1.0000

          k = 0.2857 0.4949 0.0000 ( 14730 PWs)   bands (ev):

   -61.8495 -36.1880 -36.0679 -36.0081 -13.1906 -13.1126  -6.5947  -6.2673
    -4.9437  -4.5904  -4.3005  -3.1252  -1.4073

     occupation numbers 
     1.0000   1.0000   1.0000   1.0000   1.0000   1.0000   1.0000   1.0000
     1.0000   1.0000   1.0000   1.0000   1.0000

          k = 0.2857 0.5499 0.0000 ( 14738 PWs)   bands (ev):

   -61.8483 -36.1787 -36.0917 -36.0057 -13.1184 -13.0780  -6.7112  -6.0967
    -5.1875  -4.6622  -4.1862  -3.2764  -1.2554

     occupation numbers 
     1.0000   1.0000   1.0000   1.0000   1.0000   1.0000   1.0000   1.0000
     1.0000   1.0000   1.0000   1.0000   1.0000

          k = 0.3333 0.5774 0.0000 ( 14760 PWs)   bands (ev):

   -61.8478 -36.1630 -36.1133 -36.0048 -13.0899 -13.0629  -6.7634  -5.8971
    -5.3732  -4.7462  -4.1206  -3.3520  -1.1798

     occupation numbers 
     1.0000   1.0000   1.0000   1.0000   1.0000   1.0000   1.0000   1.0000
     1.0000   1.0000   1.0000   1.0000   1.0000

     highest occupied level (ev):    -1.1798

!    total energy              =    -184.83183137 Ry
     estimated scf accuracy    <          5.2E-16 Ry

     convergence has been achieved in   9 iterations

     Forces acting on atoms (cartesian axes, Ry/au):

     atom    1 type  1   force =     0.00000000    0.00000000    0.00000000
     atom    2 type  2   force =     0.00000000    0.00000000    0.00000218
     atom    3 type  2   force =     0.00000000   -0.00000000   -0.00000218
     The non-local contrib.  to forces
     atom    1 type  1   force =    -0.00000000   -0.00000000    0.00000000
     atom    2 type  2   force =     0.00000000    0.00000000   -0.25587718
     atom    3 type  2   force =     0.00000000    0.00000000    0.25587718
     The ionic contribution  to forces
     atom    1 type  1   force =     0.00000001    0.00000097    0.00000000
     atom    2 type  2   force =    -0.00000000   -0.00000048   37.43241322
     atom    3 type  2   force =    -0.00000000   -0.00000048  -37.43241322
     The local contribution  to forces
     atom    1 type  1   force =    -0.00000000    0.00002380    0.00000000
     atom    2 type  2   force =    -0.00000001    0.00000001  -37.18071727
     atom    3 type  2   force =    -0.00000001    0.00000001   37.18071727
     The core correction contribution to forces
     atom    1 type  1   force =    -0.00000000   -0.00000040   -0.00000000
     atom    2 type  2   force =     0.00000000   -0.00000000    0.00418338
     atom    3 type  2   force =     0.00000000   -0.00000000   -0.00418338
     The Hubbard contrib.    to forces
     atom    1 type  1   force =     0.00000000    0.00000000    0.00000000
     atom    2 type  2   force =     0.00000000    0.00000000    0.00000000
     atom    3 type  2   force =     0.00000000    0.00000000    0.00000000
     The SCF correction term to forces
     atom    1 type  1   force =    -0.00000000   -0.00000000    0.00000000
     atom    2 type  2   force =     0.00000000   -0.00000000    0.00000003
     atom    3 type  2   force =     0.00000000    0.00000000   -0.00000003

     Total force =     0.000003     Total SCF correction =     0.000000

     Entering Dynamics:    iteration =     9

     <vel(dt)|acc(dt)> =   1.00000000

ATOMIC_POSITIONS (crystal)
Mo               0.3333333000        0.6666666000        0.5000000000    0   0   0
S                0.6666666670        0.3333333330        0.5735918762    0   0   1
S                0.6666666670        0.3333333330        0.4264081238    0   0   1



     Writing config-only to output data dir ./tmp/MoS2.save/ :
     XML data file
     NEW-OLD atomic charge density approx. for the potential

     total cpu time spent up to now is      350.3 secs

     per-process dynamical memory:    73.2 Mb

     Self-consistent Calculation

     iteration #  1     ecut=    80.00 Ry     beta= 0.20
     Davidson diagonalization with overlap

---- Real-time Memory Report at c_bands before calling an iterative solver
            93 MiB given to the printing process from OS
            71 MiB allocation reported by mallinfo(arena+hblkhd)
        243579 MiB available memory on the node where the printing process lives
------------------
     ethr =  1.00E-06,  avg # of iterations =  1.0

     Threshold (ethr) on eigenvalues was too large:
     Diagonalizing with lowered threshold

     Davidson diagonalization with overlap

---- Real-time Memory Report at c_bands before calling an iterative solver
            93 MiB given to the printing process from OS
            71 MiB allocation reported by mallinfo(arena+hblkhd)
        243579 MiB available memory on the node where the printing process lives
------------------
     ethr =  2.09E-13,  avg # of iterations =  4.9

     total cpu time spent up to now is      352.8 secs

     total energy              =    -184.83183137 Ry
     estimated scf accuracy    <          1.8E-12 Ry

     iteration #  2     ecut=    80.00 Ry     beta= 0.20
     Davidson diagonalization with overlap

---- Real-time Memory Report at c_bands before calling an iterative solver
            93 MiB given to the printing process from OS
            71 MiB allocation reported by mallinfo(arena+hblkhd)
        243579 MiB available memory on the node where the printing process lives
------------------
     ethr =  1.00E-13,  avg # of iterations =  1.0

     total cpu time spent up to now is      353.7 secs

     total energy              =    -184.83183137 Ry
     estimated scf accuracy    <          1.1E-12 Ry

     iteration #  3     ecut=    80.00 Ry     beta= 0.20
     Davidson diagonalization with overlap

---- Real-time Memory Report at c_bands before calling an iterative solver
            93 MiB given to the printing process from OS
            71 MiB allocation reported by mallinfo(arena+hblkhd)
        243579 MiB available memory on the node where the printing process lives
------------------
     ethr =  1.00E-13,  avg # of iterations =  1.0

     total cpu time spent up to now is      354.7 secs

     total energy              =    -184.83183137 Ry
     estimated scf accuracy    <          1.7E-13 Ry

     iteration #  4     ecut=    80.00 Ry     beta= 0.20
     Davidson diagonalization with overlap

---- Real-time Memory Report at c_bands before calling an iterative solver
            93 MiB given to the printing process from OS
            71 MiB allocation reported by mallinfo(arena+hblkhd)
        243579 MiB available memory on the node where the printing process lives
------------------
     ethr =  1.00E-13,  avg # of iterations =  1.0

     total cpu time spent up to now is      355.7 secs

     total energy              =    -184.83183137 Ry
     estimated scf accuracy    <          1.5E-13 Ry

     iteration #  5     ecut=    80.00 Ry     beta= 0.20
     Davidson diagonalization with overlap

---- Real-time Memory Report at c_bands before calling an iterative solver
            93 MiB given to the printing process from OS
            71 MiB allocation reported by mallinfo(arena+hblkhd)
        243579 MiB available memory on the node where the printing process lives
------------------
     ethr =  1.00E-13,  avg # of iterations =  1.0

     total cpu time spent up to now is      356.6 secs

     total energy              =    -184.83183137 Ry
     estimated scf accuracy    <          7.5E-14 Ry

     iteration #  6     ecut=    80.00 Ry     beta= 0.20
     Davidson diagonalization with overlap

---- Real-time Memory Report at c_bands before calling an iterative solver
            93 MiB given to the printing process from OS
            71 MiB allocation reported by mallinfo(arena+hblkhd)
        243579 MiB available memory on the node where the printing process lives
------------------
     ethr =  1.00E-13,  avg # of iterations =  1.0

     total cpu time spent up to now is      357.6 secs

     total energy              =    -184.83183137 Ry
     estimated scf accuracy    <          7.9E-14 Ry

     iteration #  7     ecut=    80.00 Ry     beta= 0.20
     Davidson diagonalization with overlap

---- Real-time Memory Report at c_bands before calling an iterative solver
            93 MiB given to the printing process from OS
            71 MiB allocation reported by mallinfo(arena+hblkhd)
        243579 MiB available memory on the node where the printing process lives
------------------
     ethr =  1.00E-13,  avg # of iterations =  1.0

     total cpu time spent up to now is      358.5 secs

     total energy              =    -184.83183137 Ry
     estimated scf accuracy    <          3.9E-15 Ry

     iteration #  8     ecut=    80.00 Ry     beta= 0.20
     Davidson diagonalization with overlap

---- Real-time Memory Report at c_bands before calling an iterative solver
            93 MiB given to the printing process from OS
            71 MiB allocation reported by mallinfo(arena+hblkhd)
        243578 MiB available memory on the node where the printing process lives
------------------
     ethr =  1.00E-13,  avg # of iterations =  1.0

     total cpu time spent up to now is      359.5 secs

     total energy              =    -184.83183137 Ry
     estimated scf accuracy    <          1.3E-15 Ry

     iteration #  9     ecut=    80.00 Ry     beta= 0.20
     Davidson diagonalization with overlap

---- Real-time Memory Report at c_bands before calling an iterative solver
            93 MiB given to the printing process from OS
            71 MiB allocation reported by mallinfo(arena+hblkhd)
        243578 MiB available memory on the node where the printing process lives
------------------
     ethr =  1.00E-13,  avg # of iterations =  1.0

     total cpu time spent up to now is      360.4 secs

     total energy              =    -184.83183137 Ry
     estimated scf accuracy    <          1.2E-15 Ry

     iteration # 10     ecut=    80.00 Ry     beta= 0.20
     Davidson diagonalization with overlap

---- Real-time Memory Report at c_bands before calling an iterative solver
            93 MiB given to the printing process from OS
            71 MiB allocation reported by mallinfo(arena+hblkhd)
        243578 MiB available memory on the node where the printing process lives
------------------
     ethr =  1.00E-13,  avg # of iterations =  1.0

     total cpu time spent up to now is      361.4 secs

     total energy              =    -184.83183137 Ry
     estimated scf accuracy    <          1.2E-15 Ry

     iteration # 11     ecut=    80.00 Ry     beta= 0.20
     Davidson diagonalization with overlap

---- Real-time Memory Report at c_bands before calling an iterative solver
            93 MiB given to the printing process from OS
            71 MiB allocation reported by mallinfo(arena+hblkhd)
        243578 MiB available memory on the node where the printing process lives
------------------
     ethr =  1.00E-13,  avg # of iterations =  1.0

     total cpu time spent up to now is      362.4 secs

     total energy              =    -184.83183137 Ry
     estimated scf accuracy    <          1.3E-15 Ry

     iteration # 12     ecut=    80.00 Ry     beta= 0.20
     Davidson diagonalization with overlap

---- Real-time Memory Report at c_bands before calling an iterative solver
            93 MiB given to the printing process from OS
            71 MiB allocation reported by mallinfo(arena+hblkhd)
        243578 MiB available memory on the node where the printing process lives
------------------
     ethr =  1.00E-13,  avg # of iterations =  1.0

     total cpu time spent up to now is      363.3 secs

     total energy              =    -184.83183137 Ry
     estimated scf accuracy    <          1.6E-15 Ry

     iteration # 13     ecut=    80.00 Ry     beta= 0.20
     Davidson diagonalization with overlap

---- Real-time Memory Report at c_bands before calling an iterative solver
            93 MiB given to the printing process from OS
            71 MiB allocation reported by mallinfo(arena+hblkhd)
        243578 MiB available memory on the node where the printing process lives
------------------
     ethr =  1.00E-13,  avg # of iterations =  1.0

     total cpu time spent up to now is      364.3 secs

     total energy              =    -184.83183137 Ry
     estimated scf accuracy    <          1.1E-15 Ry

     iteration # 14     ecut=    80.00 Ry     beta= 0.20
     Davidson diagonalization with overlap

---- Real-time Memory Report at c_bands before calling an iterative solver
            93 MiB given to the printing process from OS
            71 MiB allocation reported by mallinfo(arena+hblkhd)
        243578 MiB available memory on the node where the printing process lives
------------------
     ethr =  1.00E-13,  avg # of iterations =  1.0

     total cpu time spent up to now is      365.2 secs

     End of self-consistent calculation

          k = 0.0000 0.0000 0.0000 ( 14855 PWs)   bands (ev):

   -61.8982 -36.1035 -35.8402 -35.8402 -15.3962 -14.0325  -6.9436  -3.8025
    -3.8025  -3.0139  -2.6458  -2.6458  -1.2396

     occupation numbers 
     1.0000   1.0000   1.0000   1.0000   1.0000   1.0000   1.0000   1.0000
     1.0000   1.0000   1.0000   1.0000   1.0000

          k = 0.0000 0.0550 0.0000 ( 14883 PWs)   bands (ev):

   -61.8972 -36.1016 -35.8501 -35.8424 -15.3602 -14.0179  -6.9025  -3.8843
    -3.7647  -3.2325  -2.7047  -2.4783  -1.2521

     occupation numbers 
     1.0000   1.0000   1.0000   1.0000   1.0000   1.0000   1.0000   1.0000
     1.0000   1.0000   1.0000   1.0000   1.0000

          k = 0.0000 0.1100 0.0000 ( 14863 PWs)   bands (ev):

   -61.8943 -36.0959 -35.8786 -35.8489 -15.2541 -13.9747  -6.7850  -4.1077
    -3.6539  -3.5900  -2.8662  -2.2889  -1.3009

     occupation numbers 
     1.0000   1.0000   1.0000   1.0000   1.0000   1.0000   1.0000   1.0000
     1.0000   1.0000   1.0000   1.0000   1.0000

          k = 0.0000 0.1650 0.0000 ( 14855 PWs)   bands (ev):

   -61.8898 -36.0871 -35.9230 -35.8590 -15.0833 -13.9052  -6.6103  -4.4178
    -3.9725  -3.4777  -3.0947  -2.2207  -1.4148

     occupation numbers 
     1.0000   1.0000   1.0000   1.0000   1.0000   1.0000   1.0000   1.0000
     1.0000   1.0000   1.0000   1.0000   1.0000

          k = 0.0000 0.2199 0.0000 ( 14815 PWs)   bands (ev):

   -61.8840 -36.0758 -35.9791 -35.8718 -14.8567 -13.8133  -6.4221  -4.7421
    -4.3628  -3.3528  -3.2496  -2.2913  -1.6168

     occupation numbers 
     1.0000   1.0000   1.0000   1.0000   1.0000   1.0000   1.0000   1.0000
     1.0000   1.0000   1.0000   1.0000   1.0000

          k = 0.0000 0.2749 0.0000 ( 14799 PWs)   bands (ev):

   -61.8775 -36.0631 -36.0417 -35.8862 -14.5873 -13.7046  -6.3062  -4.9913
    -4.7530  -3.6112  -2.9892  -2.4556  -1.8787

     occupation numbers 
     1.0000   1.0000   1.0000   1.0000   1.0000   1.0000   1.0000   1.0000
     1.0000   1.0000   1.0000   1.0000   1.0000

          k = 0.0000 0.3299 0.0000 ( 14811 PWs)   bands (ev):

   -61.8708 -36.1051 -36.0500 -35.9008 -14.2924 -13.5871  -6.3611  -5.1314
    -5.0957  -3.8488  -2.7217  -2.6478  -2.1080

     occupation numbers 
     1.0000   1.0000   1.0000   1.0000   1.0000   1.0000   1.0000   1.0000
     1.0000   1.0000   1.0000   1.0000   1.0000

          k = 0.0000 0.3849 0.0000 ( 14770 PWs)   bands (ev):

   -61.8646 -36.1638 -36.0378 -35.9145 -13.9949 -13.4705  -6.5610  -5.4792
    -5.1240  -4.0516  -2.8205  -2.4760  -2.2010

     occupation numbers 
     1.0000   1.0000   1.0000   1.0000   1.0000   1.0000   1.0000   1.0000
     1.0000   1.0000   1.0000   1.0000   1.0000

          k = 0.0000 0.4399 0.0000 ( 14722 PWs)   bands (ev):

   -61.8594 -36.2126 -36.0275 -35.9259 -13.7239 -13.3668  -6.7970  -5.7720
    -5.1825  -4.2104  -2.9522  -2.2777  -2.1285

     occupation numbers 
     1.0000   1.0000   1.0000   1.0000   1.0000   1.0000   1.0000   1.0000
     1.0000   1.0000   1.0000   1.0000   1.0000

          k = 0.0000 0.4949 0.0000 ( 14716 PWs)   bands (ev):

   -61.8556 -36.2476 -36.0201 -35.9341 -13.5135 -13.2882  -6.9935  -5.9847
    -5.2684  -4.3192  -3.0380  -2.1428  -1.9699

     occupation numbers 
     1.0000   1.0000   1.0000   1.0000   1.0000   1.0000   1.0000   1.0000
     1.0000   1.0000   1.0000   1.0000   1.0000

          k = 0.0000 0.5499 0.0000 ( 14720 PWs)   bands (ev):

   -61.8536 -36.2658 -36.0162 -35.9384 -13.3972 -13.2457  -7.1045  -6.0968
    -5.3289  -4.3744  -3.0796  -2.0758  -1.8483

     occupation numbers 
     1.0000   1.0000   1.0000   1.0000   1.0000   1.0000   1.0000   1.0000
     1.0000   1.0000   1.0000   1.0000   1.0000

          k = 0.0476 0.0825 0.0000 ( 14875 PWs)   bands (ev):

   -61.8952 -36.0978 -35.8690 -35.8469 -15.2892 -13.9890  -6.8231  -4.0362
    -3.6910  -3.4857  -2.8308  -2.3176  -1.2827

     occupation numbers 
     1.0000   1.0000   1.0000   1.0000   1.0000   1.0000   1.0000   1.0000
     1.0000   1.0000   1.0000   1.0000   1.0000

          k = 0.0476 0.1375 0.0000 ( 14858 PWs)   bands (ev):

   -61.8915 -36.0905 -35.9051 -35.8557 -15.1507 -13.9326  -6.6759  -4.3007
    -3.8180  -3.5500  -3.0616  -2.1855  -1.3639

     occupation numbers 
     1.0000   1.0000   1.0000   1.0000   1.0000   1.0000   1.0000   1.0000
     1.0000   1.0000   1.0000   1.0000   1.0000

          k = 0.0476 0.1925 0.0000 ( 14822 PWs)   bands (ev):

   -61.8864 -36.0805 -35.9547 -35.8678 -14.9519 -13.8518  -6.4904  -4.6148
    -4.1774  -3.3541  -3.3406  -2.1713  -1.5231

     occupation numbers 
     1.0000   1.0000   1.0000   1.0000   1.0000   1.0000   1.0000   1.0000
     1.0000   1.0000   1.0000   1.0000   1.0000

          k = 0.0476 0.2474 0.0000 ( 14793 PWs)   bands (ev):

   -61.8803 -36.0685 -36.0132 -35.8821 -14.7036 -13.7512  -6.3292  -4.8982
    -4.5540  -3.6190  -3.1244  -2.2795  -1.7580

     occupation numbers 
     1.0000   1.0000   1.0000   1.0000   1.0000   1.0000   1.0000   1.0000
     1.0000   1.0000   1.0000   1.0000   1.0000

          k = 0.0476 0.3024 0.0000 ( 14812 PWs)   bands (ev):

   -61.8737 -36.0754 -36.0556 -35.8975 -14.4208 -13.6375  -6.2960  -5.0603
    -4.9388  -3.8637  -2.8942  -2.4612  -1.9974

     occupation numbers 
     1.0000   1.0000   1.0000   1.0000   1.0000   1.0000   1.0000   1.0000
     1.0000   1.0000   1.0000   1.0000   1.0000

          k = 0.0476 0.3574 0.0000 ( 14790 PWs)   bands (ev):

   -61.8672 -36.1356 -36.0429 -35.9125 -14.1235 -13.5195  -6.4360  -5.3122
    -5.0973  -4.0608  -2.7090  -2.6593  -2.1176

     occupation numbers 
     1.0000   1.0000   1.0000   1.0000   1.0000   1.0000   1.0000   1.0000
     1.0000   1.0000   1.0000   1.0000   1.0000

          k = 0.0476 0.4124 0.0000 ( 14759 PWs)   bands (ev):

   -61.8615 -36.1886 -36.0317 -35.9257 -13.8375 -13.4081  -6.6604  -5.6458
    -5.1295  -4.2089  -2.8348  -2.5756  -2.0591

     occupation numbers 
     1.0000   1.0000   1.0000   1.0000   1.0000   1.0000   1.0000   1.0000
     1.0000   1.0000   1.0000   1.0000   1.0000

          k = 0.0476 0.4674 0.0000 ( 14731 PWs)   bands (ev):

   -61.8570 -36.2300 -36.0228 -35.9361 -13.5945 -13.3157  -6.8767  -5.9101
    -5.2085  -4.3112  -2.9674  -2.4471  -1.9112

     occupation numbers 
     1.0000   1.0000   1.0000   1.0000   1.0000   1.0000   1.0000   1.0000
     1.0000   1.0000   1.0000   1.0000   1.0000

          k = 0.0476 0.5224 0.0000 ( 14718 PWs)   bands (ev):

   -61.8541 -36.2562 -36.0172 -35.9427 -13.4289 -13.2542  -7.0294  -6.0800
    -5.2904  -4.3712  -3.0486  -2.3463  -1.7694

     occupation numbers 
     1.0000   1.0000   1.0000   1.0000   1.0000   1.0000   1.0000   1.0000
     1.0000   1.0000   1.0000   1.0000   1.0000

          k = 0.0476 0.5774 0.0000 ( 14714 PWs)   bands (ev):

   -61.8531 -36.2652 -36.0152 -35.9450 -13.3699 -13.2325  -7.0845  -6.1386
    -5.3240  -4.3910  -3.0758  -2.3098  -1.7098

     occupation numbers 
     1.0000   1.0000   1.0000   1.0000   1.0000   1.0000   1.0000   1.0000
     1.0000   1.0000   1.0000   1.0000   1.0000

          k = 0.0952 0.1650 0.0000 ( 14827 PWs)   bands (ev):

   -61.8872 -36.0821 -35.9454 -35.8672 -14.9841 -13.8648  -6.5149  -4.5655
    -4.0857  -3.3944  -3.3916  -2.0924  -1.4910

     occupation numbers 
     1.0000   1.0000   1.0000   1.0000   1.0000   1.0000   1.0000   1.0000
     1.0000   1.0000   1.0000   1.0000   1.0000

          k = 0.0952 0.2199 0.0000 ( 14813 PWs)   bands (ev):

   -61.8817 -36.0713 -35.9961 -35.8823 -14.7633 -13.7749  -6.3454  -4.8337
    -4.3833  -3.7486  -3.2129  -2.0969  -1.6877

     occupation numbers 
     1.0000   1.0000   1.0000   1.0000   1.0000   1.0000   1.0000   1.0000
     1.0000   1.0000   1.0000   1.0000   1.0000

          k = 0.0952 0.2749 0.0000 ( 14793 PWs)   bands (ev):

   -61.8755 -36.0591 -36.0525 -35.8994 -14.5008 -13.6685  -6.2526  -5.0168
    -4.7356  -4.0371  -3.0505  -2.2131  -1.9053

     occupation numbers 
     1.0000   1.0000   1.0000   1.0000   1.0000   1.0000   1.0000   1.0000
     1.0000   1.0000   1.0000   1.0000   1.0000

          k = 0.0952 0.3299 0.0000 ( 14799 PWs)   bands (ev):

   -61.8691 -36.1095 -36.0466 -35.9169 -14.2141 -13.5530  -6.3186  -5.1310
    -5.0609  -4.2233  -2.9644  -2.4030  -2.0320

     occupation numbers 
     1.0000   1.0000   1.0000   1.0000   1.0000   1.0000   1.0000   1.0000
     1.0000   1.0000   1.0000   1.0000   1.0000

          k = 0.0952 0.3849 0.0000 ( 14771 PWs)   bands (ev):

   -61.8632 -36.1624 -36.0349 -35.9333 -13.9255 -13.4382  -6.5020  -5.5158
    -5.0575  -4.3297  -2.9400  -2.6172  -2.0030

     occupation numbers 
     1.0000   1.0000   1.0000   1.0000   1.0000   1.0000   1.0000   1.0000
     1.0000   1.0000   1.0000   1.0000   1.0000

          k = 0.0952 0.4399 0.0000 ( 14747 PWs)   bands (ev):

   -61.8582 -36.2064 -36.0251 -35.9469 -13.6636 -13.3358  -6.7081  -5.8429
    -5.1119  -4.3822  -2.8869  -2.8155  -1.8769

     occupation numbers 
     1.0000   1.0000   1.0000   1.0000   1.0000   1.0000   1.0000   1.0000
     1.0000   1.0000   1.0000   1.0000   1.0000

          k = 0.0952 0.4949 0.0000 ( 14735 PWs)   bands (ev):

   -61.8546 -36.2379 -36.0180 -35.9568 -13.4609 -13.2580  -6.8763  -6.0795
    -5.2079  -4.4013  -2.9676  -2.8074  -1.7238

     occupation numbers 
     1.0000   1.0000   1.0000   1.0000   1.0000   1.0000   1.0000   1.0000
     1.0000   1.0000   1.0000   1.0000   1.0000

          k = 0.0952 0.5499 0.0000 ( 14714 PWs)   bands (ev):

   -61.8527 -36.2544 -36.0143 -35.9619 -13.3494 -13.2159  -6.9704  -6.2035
    -5.2771  -4.4048  -3.0507  -2.7553  -1.6141

     occupation numbers 
     1.0000   1.0000   1.0000   1.0000   1.0000   1.0000   1.0000   1.0000
     1.0000   1.0000   1.0000   1.0000   1.0000

          k = 0.1429 0.2474 0.0000 ( 14801 PWs)   bands (ev):

   -61.8761 -36.0603 -36.0435 -35.9011 -14.5280 -13.6789  -6.2373  -4.9973
    -4.6138  -4.1607  -3.1107  -2.1019  -1.8715

     occupation numbers 
     1.0000   1.0000   1.0000   1.0000   1.0000   1.0000   1.0000   1.0000
     1.0000   1.0000   1.0000   1.0000   1.0000

          k = 0.1429 0.3024 0.0000 ( 14798 PWs)   bands (ev):

   -61.8701 -36.0930 -36.0486 -35.9221 -14.2608 -13.5700  -6.2460  -5.0342
    -4.9682  -4.4028  -3.1192  -2.2150  -1.9883

     occupation numbers 
     1.0000   1.0000   1.0000   1.0000   1.0000   1.0000   1.0000   1.0000
     1.0000   1.0000   1.0000   1.0000   1.0000

          k = 0.1429 0.3574 0.0000 ( 14791 PWs)   bands (ev):

   -61.8642 -36.1406 -36.0370 -35.9432 -13.9811 -13.4564  -6.3710  -5.3930
    -4.9870  -4.4863  -3.2287  -2.4087  -1.9825

     occupation numbers 
     1.0000   1.0000   1.0000   1.0000   1.0000   1.0000   1.0000   1.0000
     1.0000   1.0000   1.0000   1.0000   1.0000

          k = 0.1429 0.4124 0.0000 ( 14771 PWs)   bands (ev):

   -61.8590 -36.1822 -36.0268 -35.9621 -13.7137 -13.3486  -6.5361  -5.7808
    -4.9877  -4.4932  -3.3137  -2.6359  -1.8853

     occupation numbers 
     1.0000   1.0000   1.0000   1.0000   1.0000   1.0000   1.0000   1.0000
     1.0000   1.0000   1.0000   1.0000   1.0000

          k = 0.1429 0.4674 0.0000 ( 14749 PWs)   bands (ev):

   -61.8549 -36.2147 -36.0187 -35.9770 -13.4884 -13.2587  -6.6837  -6.0844
    -5.0796  -4.4594  -3.3157  -2.8505  -1.7359

     occupation numbers 
     1.0000   1.0000   1.0000   1.0000   1.0000   1.0000   1.0000   1.0000
     1.0000   1.0000   1.0000   1.0000   1.0000

          k = 0.1429 0.5224 0.0000 ( 14744 PWs)   bands (ev):

   -61.8523 -36.2352 -36.0136 -35.9866 -13.3360 -13.1985  -6.7832  -6.2772
    -5.1883  -4.4154  -3.2855  -3.0082  -1.5869

     occupation numbers 
     1.0000   1.0000   1.0000   1.0000   1.0000   1.0000   1.0000   1.0000
     1.0000   1.0000   1.0000   1.0000   1.0000

          k = 0.1429 0.5774 0.0000 ( 14722 PWs)   bands (ev):

   -61.8514 -36.2423 -36.0118 -35.9899 -13.2820 -13.1773  -6.8183  -6.3434
    -5.2339  -4.3950  -3.2712  -3.0673  -1.5216

     occupation numbers 
     1.0000   1.0000   1.0000   1.0000   1.0000   1.0000   1.0000   1.0000
     1.0000   1.0000   1.0000   1.0000   1.0000

          k = 0.1905 0.3299 0.0000 ( 14781 PWs)   bands (ev):

   -61.8646 -36.1318 -36.0378 -35.9479 -14.0001 -13.4625  -6.3193  -5.3344
    -4.9551  -4.5624  -3.3419  -2.3228  -1.9784

     occupation numbers 
     1.0000   1.0000   1.0000   1.0000   1.0000   1.0000   1.0000   1.0000
     1.0000   1.0000   1.0000   1.0000   1.0000

          k = 0.1905 0.3849 0.0000 ( 14753 PWs)   bands (ev):

   -61.8594 -36.1659 -36.0277 -35.9738 -13.7401 -13.3548  -6.4245  -5.7388
    -4.8773  -4.5745  -3.6037  -2.5147  -1.9007

     occupation numbers 
     1.0000   1.0000   1.0000   1.0000   1.0000   1.0000   1.0000   1.0000
     1.0000   1.0000   1.0000   1.0000   1.0000

          k = 0.1905 0.4399 0.0000 ( 14749 PWs)   bands (ev):

   -61.8551 -36.1933 -36.0192 -35.9966 -13.5068 -13.2580  -6.5159  -6.0881
    -4.9121  -4.5149  -3.7710  -2.7444  -1.7644

     occupation numbers 
     1.0000   1.0000   1.0000   1.0000   1.0000   1.0000   1.0000   1.0000
     1.0000   1.0000   1.0000   1.0000   1.0000

          k = 0.1905 0.4949 0.0000 ( 14736 PWs)   bands (ev):

   -61.8520 -36.2123 -36.0137 -36.0130 -13.3287 -13.1840  -6.5730  -6.3404
    -5.0497  -4.4259  -3.8190  -2.9581  -1.5924

     occupation numbers 
     1.0000   1.0000   1.0000   1.0000   1.0000   1.0000   1.0000   1.0000
     1.0000   1.0000   1.0000   1.0000   1.0000

          k = 0.1905 0.5499 0.0000 ( 14754 PWs)   bands (ev):

   -61.8504 -36.2221 -36.0227 -36.0098 -13.2316 -13.1438  -6.5967  -6.4723
    -5.1634  -4.3561  -3.8210  -3.0938  -1.4613

     occupation numbers 
     1.0000   1.0000   1.0000   1.0000   1.0000   1.0000   1.0000   1.0000
     1.0000   1.0000   1.0000   1.0000   1.0000

          k = 0.2381 0.4124 0.0000 ( 14762 PWs)   bands (ev):

   -61.8552 -36.1840 -36.0193 -36.0053 -13.5133 -13.2576  -6.4479  -6.0893
    -4.8019  -4.5374  -3.9900  -2.7014  -1.7778

     occupation numbers 
     1.0000   1.0000   1.0000   1.0000   1.0000   1.0000   1.0000   1.0000
     1.0000   1.0000   1.0000   1.0000   1.0000

          k = 0.2381 0.4674 0.0000 ( 14739 PWs)   bands (ev):

   -61.8519 -36.1948 -36.0335 -36.0128 -13.3256 -13.1758  -6.4258  -6.3765
    -4.8647  -4.4335  -4.2469  -2.9229  -1.6026

     occupation numbers 
     1.0000   1.0000   1.0000   1.0000   1.0000   1.0000   1.0000   1.0000
     1.0000   1.0000   1.0000   1.0000   1.0000

          k = 0.2381 0.5224 0.0000 ( 14764 PWs)   bands (ev):

   -61.8497 -36.1996 -36.0535 -36.0086 -13.2009 -13.1208  -6.5624  -6.3713
    -5.0550  -4.3191  -4.3167  -3.1165  -1.4219

     occupation numbers 
     1.0000   1.0000   1.0000   1.0000   1.0000   1.0000   1.0000   1.0000
     1.0000   1.0000   1.0000   1.0000   1.0000

          k = 0.2381 0.5774 0.0000 ( 14776 PWs)   bands (ev):

   -61.8490 -36.2007 -36.0609 -36.0071 -13.1571 -13.1013  -6.6266  -6.3387
    -5.1542  -4.3275  -4.2612  -3.1987  -1.3397

     occupation numbers 
     1.0000   1.0000   1.0000   1.0000   1.0000   1.0000   1.0000   1.0000
     1.0000   1.0000   1.0000   1.0000   1.0000

          k = 0.2857 0.4949 0.0000 ( 14730 PWs)   bands (ev):

   -61.8495 -36.1880 -36.0679 -36.0081 -13.1906 -13.1126  -6.5947  -6.2673
    -4.9437  -4.5904  -4.3005  -3.1252  -1.4073

     occupation numbers 
     1.0000   1.0000   1.0000   1.0000   1.0000   1.0000   1.0000   1.0000
     1.0000   1.0000   1.0000   1.0000   1.0000

          k = 0.2857 0.5499 0.0000 ( 14738 PWs)   bands (ev):

   -61.8483 -36.1787 -36.0917 -36.0057 -13.1184 -13.0780  -6.7112  -6.0967
    -5.1875  -4.6622  -4.1862  -3.2764  -1.2554

     occupation numbers 
     1.0000   1.0000   1.0000   1.0000   1.0000   1.0000   1.0000   1.0000
     1.0000   1.0000   1.0000   1.0000   1.0000

          k = 0.3333 0.5774 0.0000 ( 14760 PWs)   bands (ev):

   -61.8478 -36.1630 -36.1133 -36.0048 -13.0899 -13.0629  -6.7634  -5.8971
    -5.3732  -4.7462  -4.1206  -3.3520  -1.1798

     occupation numbers 
     1.0000   1.0000   1.0000   1.0000   1.0000   1.0000   1.0000   1.0000
     1.0000   1.0000   1.0000   1.0000   1.0000

     highest occupied level (ev):    -1.1798

!    total energy              =    -184.83183137 Ry
     estimated scf accuracy    <          3.3E-16 Ry

     convergence has been achieved in  14 iterations

     Forces acting on atoms (cartesian axes, Ry/au):

     atom    1 type  1   force =     0.00000000   -0.00000000    0.00000000
     atom    2 type  2   force =     0.00000000   -0.00000000   -0.00000046
     atom    3 type  2   force =    -0.00000000   -0.00000000    0.00000046
     The non-local contrib.  to forces
     atom    1 type  1   force =     0.00000000    0.00000000    0.00000000
     atom    2 type  2   force =     0.00000000   -0.00000000   -0.25587880
     atom    3 type  2   force =    -0.00000000   -0.00000000    0.25587880
     The ionic contribution  to forces
     atom    1 type  1   force =     0.00000001    0.00000097    0.00000000
     atom    2 type  2   force =    -0.00000000   -0.00000048   37.43240967
     atom    3 type  2   force =    -0.00000000   -0.00000048  -37.43240967
     The local contribution  to forces
     atom    1 type  1   force =    -0.00000000    0.00002380    0.00000000
     atom    2 type  2   force =    -0.00000001    0.00000001  -37.18071482
     atom    3 type  2   force =    -0.00000001    0.00000001   37.18071482
     The core correction contribution to forces
     atom    1 type  1   force =    -0.00000000   -0.00000040   -0.00000000
     atom    2 type  2   force =     0.00000000   -0.00000000    0.00418349
     atom    3 type  2   force =     0.00000000   -0.00000000   -0.00418349
     The Hubbard contrib.    to forces
     atom    1 type  1   force =     0.00000000    0.00000000    0.00000000
     atom    2 type  2   force =     0.00000000    0.00000000    0.00000000
     atom    3 type  2   force =     0.00000000    0.00000000    0.00000000
     The SCF correction term to forces
     atom    1 type  1   force =    -0.00000000   -0.00000000    0.00000000
     atom    2 type  2   force =     0.00000000    0.00000000   -0.00000000
     atom    3 type  2   force =     0.00000000    0.00000000    0.00000000

     Total force =     0.000001     Total SCF correction =     0.000000

     Entering Dynamics:    iteration =    10

     <vel(dt)|acc(dt)> =  -1.00000000

ATOMIC_POSITIONS (crystal)
Mo               0.3333333000        0.6666666000        0.5000000000    0   0   0
S                0.6666666670        0.3333333330        0.5735918637    0   0   1
S                0.6666666670        0.3333333330        0.4264081363    0   0   1



     Writing config-only to output data dir ./tmp/MoS2.save/ :
     XML data file
     NEW-OLD atomic charge density approx. for the potential

     total cpu time spent up to now is      365.5 secs

     per-process dynamical memory:    73.2 Mb

     Self-consistent Calculation

     iteration #  1     ecut=    80.00 Ry     beta= 0.20
     Davidson diagonalization with overlap

---- Real-time Memory Report at c_bands before calling an iterative solver
            93 MiB given to the printing process from OS
            71 MiB allocation reported by mallinfo(arena+hblkhd)
        243579 MiB available memory on the node where the printing process lives
------------------
     ethr =  1.00E-06,  avg # of iterations =  1.0

     Threshold (ethr) on eigenvalues was too large:
     Diagonalizing with lowered threshold

     Davidson diagonalization with overlap

---- Real-time Memory Report at c_bands before calling an iterative solver
            93 MiB given to the printing process from OS
            71 MiB allocation reported by mallinfo(arena+hblkhd)
        243578 MiB available memory on the node where the printing process lives
------------------
     ethr =  1.00E-13,  avg # of iterations =  1.0

     total cpu time spent up to now is      367.2 secs

     total energy              =    -184.83183137 Ry
     estimated scf accuracy    <          9.1E-14 Ry

     iteration #  2     ecut=    80.00 Ry     beta= 0.20
     Davidson diagonalization with overlap

---- Real-time Memory Report at c_bands before calling an iterative solver
            93 MiB given to the printing process from OS
            71 MiB allocation reported by mallinfo(arena+hblkhd)
        243578 MiB available memory on the node where the printing process lives
------------------
     ethr =  1.00E-13,  avg # of iterations =  1.0

     total cpu time spent up to now is      368.2 secs

     total energy              =    -184.83183137 Ry
     estimated scf accuracy    <          1.0E-14 Ry

     iteration #  3     ecut=    80.00 Ry     beta= 0.20
     Davidson diagonalization with overlap

---- Real-time Memory Report at c_bands before calling an iterative solver
            93 MiB given to the printing process from OS
            71 MiB allocation reported by mallinfo(arena+hblkhd)
        243579 MiB available memory on the node where the printing process lives
------------------
     ethr =  1.00E-13,  avg # of iterations =  1.0

     total cpu time spent up to now is      369.1 secs

     total energy              =    -184.83183137 Ry
     estimated scf accuracy    <          1.3E-14 Ry

     iteration #  4     ecut=    80.00 Ry     beta= 0.20
     Davidson diagonalization with overlap

---- Real-time Memory Report at c_bands before calling an iterative solver
            93 MiB given to the printing process from OS
            71 MiB allocation reported by mallinfo(arena+hblkhd)
        243583 MiB available memory on the node where the printing process lives
------------------
     ethr =  1.00E-13,  avg # of iterations =  1.0

     total cpu time spent up to now is      370.1 secs

     total energy              =    -184.83183137 Ry
     estimated scf accuracy    <          5.5E-15 Ry

     iteration #  5     ecut=    80.00 Ry     beta= 0.20
     Davidson diagonalization with overlap

---- Real-time Memory Report at c_bands before calling an iterative solver
            93 MiB given to the printing process from OS
            71 MiB allocation reported by mallinfo(arena+hblkhd)
        243583 MiB available memory on the node where the printing process lives
------------------
     ethr =  1.00E-13,  avg # of iterations =  1.0

     total cpu time spent up to now is      371.0 secs

     total energy              =    -184.83183137 Ry
     estimated scf accuracy    <          5.4E-15 Ry

     iteration #  6     ecut=    80.00 Ry     beta= 0.20
     Davidson diagonalization with overlap

---- Real-time Memory Report at c_bands before calling an iterative solver
            93 MiB given to the printing process from OS
            71 MiB allocation reported by mallinfo(arena+hblkhd)
        243583 MiB available memory on the node where the printing process lives
------------------
     ethr =  1.00E-13,  avg # of iterations =  1.0

     total cpu time spent up to now is      372.0 secs

     End of self-consistent calculation

          k = 0.0000 0.0000 0.0000 ( 14855 PWs)   bands (ev):

   -61.8982 -36.1035 -35.8402 -35.8402 -15.3962 -14.0325  -6.9436  -3.8025
    -3.8025  -3.0139  -2.6458  -2.6458  -1.2396

     occupation numbers 
     1.0000   1.0000   1.0000   1.0000   1.0000   1.0000   1.0000   1.0000
     1.0000   1.0000   1.0000   1.0000   1.0000

          k = 0.0000 0.0550 0.0000 ( 14883 PWs)   bands (ev):

   -61.8972 -36.1016 -35.8501 -35.8424 -15.3602 -14.0179  -6.9025  -3.8843
    -3.7647  -3.2325  -2.7047  -2.4783  -1.2521

     occupation numbers 
     1.0000   1.0000   1.0000   1.0000   1.0000   1.0000   1.0000   1.0000
     1.0000   1.0000   1.0000   1.0000   1.0000

          k = 0.0000 0.1100 0.0000 ( 14863 PWs)   bands (ev):

   -61.8943 -36.0959 -35.8786 -35.8489 -15.2541 -13.9747  -6.7850  -4.1077
    -3.6539  -3.5900  -2.8662  -2.2889  -1.3009

     occupation numbers 
     1.0000   1.0000   1.0000   1.0000   1.0000   1.0000   1.0000   1.0000
     1.0000   1.0000   1.0000   1.0000   1.0000

          k = 0.0000 0.1650 0.0000 ( 14855 PWs)   bands (ev):

   -61.8898 -36.0871 -35.9230 -35.8590 -15.0833 -13.9052  -6.6103  -4.4178
    -3.9725  -3.4777  -3.0947  -2.2207  -1.4148

     occupation numbers 
     1.0000   1.0000   1.0000   1.0000   1.0000   1.0000   1.0000   1.0000
     1.0000   1.0000   1.0000   1.0000   1.0000

          k = 0.0000 0.2199 0.0000 ( 14815 PWs)   bands (ev):

   -61.8840 -36.0758 -35.9791 -35.8718 -14.8567 -13.8133  -6.4221  -4.7421
    -4.3628  -3.3528  -3.2496  -2.2913  -1.6168

     occupation numbers 
     1.0000   1.0000   1.0000   1.0000   1.0000   1.0000   1.0000   1.0000
     1.0000   1.0000   1.0000   1.0000   1.0000

          k = 0.0000 0.2749 0.0000 ( 14799 PWs)   bands (ev):

   -61.8775 -36.0631 -36.0417 -35.8862 -14.5873 -13.7046  -6.3062  -4.9913
    -4.7530  -3.6112  -2.9892  -2.4556  -1.8787

     occupation numbers 
     1.0000   1.0000   1.0000   1.0000   1.0000   1.0000   1.0000   1.0000
     1.0000   1.0000   1.0000   1.0000   1.0000

          k = 0.0000 0.3299 0.0000 ( 14811 PWs)   bands (ev):

   -61.8708 -36.1051 -36.0500 -35.9008 -14.2924 -13.5871  -6.3611  -5.1314
    -5.0957  -3.8488  -2.7217  -2.6478  -2.1080

     occupation numbers 
     1.0000   1.0000   1.0000   1.0000   1.0000   1.0000   1.0000   1.0000
     1.0000   1.0000   1.0000   1.0000   1.0000

          k = 0.0000 0.3849 0.0000 ( 14770 PWs)   bands (ev):

   -61.8646 -36.1638 -36.0378 -35.9145 -13.9949 -13.4705  -6.5610  -5.4792
    -5.1240  -4.0516  -2.8205  -2.4760  -2.2010

     occupation numbers 
     1.0000   1.0000   1.0000   1.0000   1.0000   1.0000   1.0000   1.0000
     1.0000   1.0000   1.0000   1.0000   1.0000

          k = 0.0000 0.4399 0.0000 ( 14722 PWs)   bands (ev):

   -61.8594 -36.2126 -36.0275 -35.9259 -13.7239 -13.3668  -6.7970  -5.7720
    -5.1825  -4.2104  -2.9522  -2.2777  -2.1285

     occupation numbers 
     1.0000   1.0000   1.0000   1.0000   1.0000   1.0000   1.0000   1.0000
     1.0000   1.0000   1.0000   1.0000   1.0000

          k = 0.0000 0.4949 0.0000 ( 14716 PWs)   bands (ev):

   -61.8556 -36.2476 -36.0201 -35.9341 -13.5135 -13.2882  -6.9935  -5.9847
    -5.2684  -4.3192  -3.0380  -2.1428  -1.9699

     occupation numbers 
     1.0000   1.0000   1.0000   1.0000   1.0000   1.0000   1.0000   1.0000
     1.0000   1.0000   1.0000   1.0000   1.0000

          k = 0.0000 0.5499 0.0000 ( 14720 PWs)   bands (ev):

   -61.8536 -36.2658 -36.0162 -35.9384 -13.3972 -13.2457  -7.1045  -6.0968
    -5.3289  -4.3744  -3.0796  -2.0758  -1.8483

     occupation numbers 
     1.0000   1.0000   1.0000   1.0000   1.0000   1.0000   1.0000   1.0000
     1.0000   1.0000   1.0000   1.0000   1.0000

          k = 0.0476 0.0825 0.0000 ( 14875 PWs)   bands (ev):

   -61.8952 -36.0978 -35.8690 -35.8469 -15.2892 -13.9890  -6.8231  -4.0362
    -3.6910  -3.4858  -2.8308  -2.3176  -1.2827

     occupation numbers 
     1.0000   1.0000   1.0000   1.0000   1.0000   1.0000   1.0000   1.0000
     1.0000   1.0000   1.0000   1.0000   1.0000

          k = 0.0476 0.1375 0.0000 ( 14858 PWs)   bands (ev):

   -61.8915 -36.0905 -35.9051 -35.8557 -15.1507 -13.9326  -6.6759  -4.3007
    -3.8180  -3.5500  -3.0616  -2.1855  -1.3639

     occupation numbers 
     1.0000   1.0000   1.0000   1.0000   1.0000   1.0000   1.0000   1.0000
     1.0000   1.0000   1.0000   1.0000   1.0000

          k = 0.0476 0.1925 0.0000 ( 14822 PWs)   bands (ev):

   -61.8864 -36.0805 -35.9547 -35.8678 -14.9519 -13.8518  -6.4904  -4.6148
    -4.1774  -3.3541  -3.3406  -2.1713  -1.5231

     occupation numbers 
     1.0000   1.0000   1.0000   1.0000   1.0000   1.0000   1.0000   1.0000
     1.0000   1.0000   1.0000   1.0000   1.0000

          k = 0.0476 0.2474 0.0000 ( 14793 PWs)   bands (ev):

   -61.8803 -36.0685 -36.0132 -35.8822 -14.7036 -13.7512  -6.3292  -4.8982
    -4.5540  -3.6190  -3.1244  -2.2795  -1.7580

     occupation numbers 
     1.0000   1.0000   1.0000   1.0000   1.0000   1.0000   1.0000   1.0000
     1.0000   1.0000   1.0000   1.0000   1.0000

          k = 0.0476 0.3024 0.0000 ( 14812 PWs)   bands (ev):

   -61.8737 -36.0754 -36.0556 -35.8975 -14.4208 -13.6375  -6.2960  -5.0603
    -4.9388  -3.8637  -2.8942  -2.4612  -1.9974

     occupation numbers 
     1.0000   1.0000   1.0000   1.0000   1.0000   1.0000   1.0000   1.0000
     1.0000   1.0000   1.0000   1.0000   1.0000

          k = 0.0476 0.3574 0.0000 ( 14790 PWs)   bands (ev):

   -61.8672 -36.1356 -36.0429 -35.9125 -14.1235 -13.5195  -6.4360  -5.3122
    -5.0973  -4.0608  -2.7090  -2.6593  -2.1176

     occupation numbers 
     1.0000   1.0000   1.0000   1.0000   1.0000   1.0000   1.0000   1.0000
     1.0000   1.0000   1.0000   1.0000   1.0000

          k = 0.0476 0.4124 0.0000 ( 14759 PWs)   bands (ev):

   -61.8615 -36.1886 -36.0317 -35.9257 -13.8375 -13.4081  -6.6604  -5.6458
    -5.1295  -4.2089  -2.8348  -2.5756  -2.0591

     occupation numbers 
     1.0000   1.0000   1.0000   1.0000   1.0000   1.0000   1.0000   1.0000
     1.0000   1.0000   1.0000   1.0000   1.0000

          k = 0.0476 0.4674 0.0000 ( 14731 PWs)   bands (ev):

   -61.8570 -36.2300 -36.0228 -35.9361 -13.5945 -13.3157  -6.8767  -5.9101
    -5.2085  -4.3112  -2.9674  -2.4471  -1.9112

     occupation numbers 
     1.0000   1.0000   1.0000   1.0000   1.0000   1.0000   1.0000   1.0000
     1.0000   1.0000   1.0000   1.0000   1.0000

          k = 0.0476 0.5224 0.0000 ( 14718 PWs)   bands (ev):

   -61.8541 -36.2562 -36.0172 -35.9427 -13.4289 -13.2542  -7.0294  -6.0800
    -5.2904  -4.3712  -3.0486  -2.3463  -1.7694

     occupation numbers 
     1.0000   1.0000   1.0000   1.0000   1.0000   1.0000   1.0000   1.0000
     1.0000   1.0000   1.0000   1.0000   1.0000

          k = 0.0476 0.5774 0.0000 ( 14714 PWs)   bands (ev):

   -61.8531 -36.2652 -36.0152 -35.9450 -13.3699 -13.2325  -7.0845  -6.1386
    -5.3240  -4.3910  -3.0758  -2.3098  -1.7098

     occupation numbers 
     1.0000   1.0000   1.0000   1.0000   1.0000   1.0000   1.0000   1.0000
     1.0000   1.0000   1.0000   1.0000   1.0000

          k = 0.0952 0.1650 0.0000 ( 14827 PWs)   bands (ev):

   -61.8872 -36.0821 -35.9454 -35.8672 -14.9841 -13.8648  -6.5149  -4.5655
    -4.0857  -3.3944  -3.3916  -2.0924  -1.4910

     occupation numbers 
     1.0000   1.0000   1.0000   1.0000   1.0000   1.0000   1.0000   1.0000
     1.0000   1.0000   1.0000   1.0000   1.0000

          k = 0.0952 0.2199 0.0000 ( 14813 PWs)   bands (ev):

   -61.8817 -36.0713 -35.9961 -35.8823 -14.7633 -13.7749  -6.3454  -4.8337
    -4.3833  -3.7486  -3.2129  -2.0969  -1.6877

     occupation numbers 
     1.0000   1.0000   1.0000   1.0000   1.0000   1.0000   1.0000   1.0000
     1.0000   1.0000   1.0000   1.0000   1.0000

          k = 0.0952 0.2749 0.0000 ( 14793 PWs)   bands (ev):

   -61.8755 -36.0591 -36.0525 -35.8994 -14.5008 -13.6685  -6.2526  -5.0168
    -4.7356  -4.0371  -3.0505  -2.2131  -1.9053

     occupation numbers 
     1.0000   1.0000   1.0000   1.0000   1.0000   1.0000   1.0000   1.0000
     1.0000   1.0000   1.0000   1.0000   1.0000

          k = 0.0952 0.3299 0.0000 ( 14799 PWs)   bands (ev):

   -61.8691 -36.1095 -36.0466 -35.9169 -14.2141 -13.5530  -6.3186  -5.1310
    -5.0609  -4.2233  -2.9644  -2.4030  -2.0320

     occupation numbers 
     1.0000   1.0000   1.0000   1.0000   1.0000   1.0000   1.0000   1.0000
     1.0000   1.0000   1.0000   1.0000   1.0000

          k = 0.0952 0.3849 0.0000 ( 14771 PWs)   bands (ev):

   -61.8632 -36.1624 -36.0349 -35.9333 -13.9255 -13.4382  -6.5020  -5.5158
    -5.0575  -4.3297  -2.9400  -2.6172  -2.0030

     occupation numbers 
     1.0000   1.0000   1.0000   1.0000   1.0000   1.0000   1.0000   1.0000
     1.0000   1.0000   1.0000   1.0000   1.0000

          k = 0.0952 0.4399 0.0000 ( 14747 PWs)   bands (ev):

   -61.8582 -36.2064 -36.0251 -35.9469 -13.6636 -13.3358  -6.7081  -5.8429
    -5.1119  -4.3822  -2.8869  -2.8155  -1.8769

     occupation numbers 
     1.0000   1.0000   1.0000   1.0000   1.0000   1.0000   1.0000   1.0000
     1.0000   1.0000   1.0000   1.0000   1.0000

          k = 0.0952 0.4949 0.0000 ( 14735 PWs)   bands (ev):

   -61.8546 -36.2379 -36.0180 -35.9568 -13.4609 -13.2580  -6.8763  -6.0795
    -5.2079  -4.4013  -2.9676  -2.8074  -1.7238

     occupation numbers 
     1.0000   1.0000   1.0000   1.0000   1.0000   1.0000   1.0000   1.0000
     1.0000   1.0000   1.0000   1.0000   1.0000

          k = 0.0952 0.5499 0.0000 ( 14714 PWs)   bands (ev):

   -61.8527 -36.2544 -36.0143 -35.9619 -13.3494 -13.2159  -6.9704  -6.2035
    -5.2771  -4.4048  -3.0507  -2.7553  -1.6141

     occupation numbers 
     1.0000   1.0000   1.0000   1.0000   1.0000   1.0000   1.0000   1.0000
     1.0000   1.0000   1.0000   1.0000   1.0000

          k = 0.1429 0.2474 0.0000 ( 14801 PWs)   bands (ev):

   -61.8761 -36.0603 -36.0435 -35.9011 -14.5280 -13.6789  -6.2373  -4.9973
    -4.6138  -4.1607  -3.1107  -2.1019  -1.8715

     occupation numbers 
     1.0000   1.0000   1.0000   1.0000   1.0000   1.0000   1.0000   1.0000
     1.0000   1.0000   1.0000   1.0000   1.0000

          k = 0.1429 0.3024 0.0000 ( 14798 PWs)   bands (ev):

   -61.8701 -36.0930 -36.0486 -35.9221 -14.2608 -13.5700  -6.2460  -5.0342
    -4.9682  -4.4028  -3.1192  -2.2150  -1.9883

     occupation numbers 
     1.0000   1.0000   1.0000   1.0000   1.0000   1.0000   1.0000   1.0000
     1.0000   1.0000   1.0000   1.0000   1.0000

          k = 0.1429 0.3574 0.0000 ( 14791 PWs)   bands (ev):

   -61.8642 -36.1406 -36.0370 -35.9432 -13.9811 -13.4564  -6.3710  -5.3930
    -4.9870  -4.4863  -3.2287  -2.4087  -1.9825

     occupation numbers 
     1.0000   1.0000   1.0000   1.0000   1.0000   1.0000   1.0000   1.0000
     1.0000   1.0000   1.0000   1.0000   1.0000

          k = 0.1429 0.4124 0.0000 ( 14771 PWs)   bands (ev):

   -61.8590 -36.1822 -36.0268 -35.9621 -13.7137 -13.3486  -6.5361  -5.7808
    -4.9877  -4.4932  -3.3137  -2.6359  -1.8853

     occupation numbers 
     1.0000   1.0000   1.0000   1.0000   1.0000   1.0000   1.0000   1.0000
     1.0000   1.0000   1.0000   1.0000   1.0000

          k = 0.1429 0.4674 0.0000 ( 14749 PWs)   bands (ev):

   -61.8549 -36.2147 -36.0187 -35.9770 -13.4884 -13.2587  -6.6837  -6.0844
    -5.0796  -4.4594  -3.3157  -2.8505  -1.7359

     occupation numbers 
     1.0000   1.0000   1.0000   1.0000   1.0000   1.0000   1.0000   1.0000
     1.0000   1.0000   1.0000   1.0000   1.0000

          k = 0.1429 0.5224 0.0000 ( 14744 PWs)   bands (ev):

   -61.8523 -36.2352 -36.0136 -35.9866 -13.3360 -13.1985  -6.7832  -6.2772
    -5.1883  -4.4154  -3.2855  -3.0082  -1.5869

     occupation numbers 
     1.0000   1.0000   1.0000   1.0000   1.0000   1.0000   1.0000   1.0000
     1.0000   1.0000   1.0000   1.0000   1.0000

          k = 0.1429 0.5774 0.0000 ( 14722 PWs)   bands (ev):

   -61.8514 -36.2423 -36.0118 -35.9899 -13.2820 -13.1773  -6.8183  -6.3434
    -5.2339  -4.3950  -3.2712  -3.0673  -1.5216

     occupation numbers 
     1.0000   1.0000   1.0000   1.0000   1.0000   1.0000   1.0000   1.0000
     1.0000   1.0000   1.0000   1.0000   1.0000

          k = 0.1905 0.3299 0.0000 ( 14781 PWs)   bands (ev):

   -61.8646 -36.1318 -36.0378 -35.9479 -14.0001 -13.4625  -6.3193  -5.3344
    -4.9551  -4.5624  -3.3419  -2.3228  -1.9784

     occupation numbers 
     1.0000   1.0000   1.0000   1.0000   1.0000   1.0000   1.0000   1.0000
     1.0000   1.0000   1.0000   1.0000   1.0000

          k = 0.1905 0.3849 0.0000 ( 14753 PWs)   bands (ev):

   -61.8594 -36.1659 -36.0277 -35.9738 -13.7401 -13.3548  -6.4245  -5.7388
    -4.8773  -4.5745  -3.6037  -2.5147  -1.9007

     occupation numbers 
     1.0000   1.0000   1.0000   1.0000   1.0000   1.0000   1.0000   1.0000
     1.0000   1.0000   1.0000   1.0000   1.0000

          k = 0.1905 0.4399 0.0000 ( 14749 PWs)   bands (ev):

   -61.8551 -36.1933 -36.0192 -35.9966 -13.5068 -13.2580  -6.5159  -6.0881
    -4.9121  -4.5149  -3.7710  -2.7444  -1.7644

     occupation numbers 
     1.0000   1.0000   1.0000   1.0000   1.0000   1.0000   1.0000   1.0000
     1.0000   1.0000   1.0000   1.0000   1.0000

          k = 0.1905 0.4949 0.0000 ( 14736 PWs)   bands (ev):

   -61.8520 -36.2123 -36.0137 -36.0130 -13.3287 -13.1840  -6.5730  -6.3404
    -5.0497  -4.4259  -3.8190  -2.9581  -1.5924

     occupation numbers 
     1.0000   1.0000   1.0000   1.0000   1.0000   1.0000   1.0000   1.0000
     1.0000   1.0000   1.0000   1.0000   1.0000

          k = 0.1905 0.5499 0.0000 ( 14754 PWs)   bands (ev):

   -61.8504 -36.2221 -36.0227 -36.0098 -13.2316 -13.1438  -6.5967  -6.4723
    -5.1634  -4.3561  -3.8210  -3.0938  -1.4613

     occupation numbers 
     1.0000   1.0000   1.0000   1.0000   1.0000   1.0000   1.0000   1.0000
     1.0000   1.0000   1.0000   1.0000   1.0000

          k = 0.2381 0.4124 0.0000 ( 14762 PWs)   bands (ev):

   -61.8552 -36.1840 -36.0193 -36.0053 -13.5133 -13.2576  -6.4480  -6.0893
    -4.8019  -4.5374  -3.9900  -2.7014  -1.7778

     occupation numbers 
     1.0000   1.0000   1.0000   1.0000   1.0000   1.0000   1.0000   1.0000
     1.0000   1.0000   1.0000   1.0000   1.0000

          k = 0.2381 0.4674 0.0000 ( 14739 PWs)   bands (ev):

   -61.8519 -36.1948 -36.0335 -36.0128 -13.3256 -13.1758  -6.4258  -6.3765
    -4.8647  -4.4335  -4.2469  -2.9229  -1.6026

     occupation numbers 
     1.0000   1.0000   1.0000   1.0000   1.0000   1.0000   1.0000   1.0000
     1.0000   1.0000   1.0000   1.0000   1.0000

          k = 0.2381 0.5224 0.0000 ( 14764 PWs)   bands (ev):

   -61.8497 -36.1996 -36.0535 -36.0086 -13.2009 -13.1208  -6.5624  -6.3713
    -5.0550  -4.3191  -4.3167  -3.1165  -1.4219

     occupation numbers 
     1.0000   1.0000   1.0000   1.0000   1.0000   1.0000   1.0000   1.0000
     1.0000   1.0000   1.0000   1.0000   1.0000

          k = 0.2381 0.5774 0.0000 ( 14776 PWs)   bands (ev):

   -61.8490 -36.2007 -36.0609 -36.0071 -13.1571 -13.1013  -6.6266  -6.3387
    -5.1542  -4.3275  -4.2612  -3.1987  -1.3397

     occupation numbers 
     1.0000   1.0000   1.0000   1.0000   1.0000   1.0000   1.0000   1.0000
     1.0000   1.0000   1.0000   1.0000   1.0000

          k = 0.2857 0.4949 0.0000 ( 14730 PWs)   bands (ev):

   -61.8495 -36.1880 -36.0679 -36.0081 -13.1906 -13.1126  -6.5947  -6.2673
    -4.9437  -4.5904  -4.3005  -3.1252  -1.4073

     occupation numbers 
     1.0000   1.0000   1.0000   1.0000   1.0000   1.0000   1.0000   1.0000
     1.0000   1.0000   1.0000   1.0000   1.0000

          k = 0.2857 0.5499 0.0000 ( 14738 PWs)   bands (ev):

   -61.8483 -36.1787 -36.0917 -36.0057 -13.1184 -13.0780  -6.7112  -6.0967
    -5.1875  -4.6622  -4.1862  -3.2764  -1.2554

     occupation numbers 
     1.0000   1.0000   1.0000   1.0000   1.0000   1.0000   1.0000   1.0000
     1.0000   1.0000   1.0000   1.0000   1.0000

          k = 0.3333 0.5774 0.0000 ( 14760 PWs)   bands (ev):

   -61.8478 -36.1630 -36.1133 -36.0048 -13.0899 -13.0629  -6.7634  -5.8971
    -5.3732  -4.7462  -4.1206  -3.3520  -1.1798

     occupation numbers 
     1.0000   1.0000   1.0000   1.0000   1.0000   1.0000   1.0000   1.0000
     1.0000   1.0000   1.0000   1.0000   1.0000

     highest occupied level (ev):    -1.1798

!    total energy              =    -184.83183137 Ry
     estimated scf accuracy    <          9.0E-16 Ry

     convergence has been achieved in   6 iterations

     Forces acting on atoms (cartesian axes, Ry/au):

     atom    1 type  1   force =     0.00000000   -0.00000000    0.00000000
     atom    2 type  2   force =     0.00000000   -0.00000000   -0.00000024
     atom    3 type  2   force =     0.00000000    0.00000000    0.00000024
     The non-local contrib.  to forces
     atom    1 type  1   force =     0.00000000    0.00000000    0.00000000
     atom    2 type  2   force =     0.00000000    0.00000000   -0.25587870
     atom    3 type  2   force =     0.00000000    0.00000000    0.25587870
     The ionic contribution  to forces
     atom    1 type  1   force =     0.00000001    0.00000097    0.00000000
     atom    2 type  2   force =    -0.00000000   -0.00000048   37.43240994
     atom    3 type  2   force =    -0.00000000   -0.00000048  -37.43240994
     The local contribution  to forces
     atom    1 type  1   force =    -0.00000000    0.00002380    0.00000000
     atom    2 type  2   force =    -0.00000001    0.00000001  -37.18071494
     atom    3 type  2   force =    -0.00000001    0.00000001   37.18071494
     The core correction contribution to forces
     atom    1 type  1   force =     0.00000000   -0.00000040   -0.00000000
     atom    2 type  2   force =     0.00000000   -0.00000000    0.00418348
     atom    3 type  2   force =     0.00000000   -0.00000000   -0.00418348
     The Hubbard contrib.    to forces
     atom    1 type  1   force =     0.00000000    0.00000000    0.00000000
     atom    2 type  2   force =     0.00000000    0.00000000    0.00000000
     atom    3 type  2   force =     0.00000000    0.00000000    0.00000000
     The SCF correction term to forces
     atom    1 type  1   force =     0.00000000    0.00000000   -0.00000000
     atom    2 type  2   force =     0.00000000    0.00000000   -0.00000002
     atom    3 type  2   force =     0.00000000    0.00000000    0.00000002

     Total force =     0.000000     Total SCF correction =     0.000000

     Entering Dynamics:    iteration =    11

     <vel(dt)|acc(dt)> =   1.00000000

ATOMIC_POSITIONS (crystal)
Mo               0.3333333000        0.6666666000        0.5000000000    0   0   0
S                0.6666666670        0.3333333330        0.5735918446    0   0   1
S                0.6666666670        0.3333333330        0.4264081554    0   0   1



     Writing config-only to output data dir ./tmp/MoS2.save/ :
     XML data file
     NEW-OLD atomic charge density approx. for the potential

     total cpu time spent up to now is      372.2 secs

     per-process dynamical memory:    73.2 Mb

     Self-consistent Calculation

     iteration #  1     ecut=    80.00 Ry     beta= 0.20
     Davidson diagonalization with overlap

---- Real-time Memory Report at c_bands before calling an iterative solver
            93 MiB given to the printing process from OS
            71 MiB allocation reported by mallinfo(arena+hblkhd)
        243585 MiB available memory on the node where the printing process lives
------------------
     ethr =  1.00E-06,  avg # of iterations =  1.0

     Threshold (ethr) on eigenvalues was too large:
     Diagonalizing with lowered threshold

     Davidson diagonalization with overlap

---- Real-time Memory Report at c_bands before calling an iterative solver
            93 MiB given to the printing process from OS
            71 MiB allocation reported by mallinfo(arena+hblkhd)
        243585 MiB available memory on the node where the printing process lives
------------------
     ethr =  1.00E-13,  avg # of iterations =  1.0

     total cpu time spent up to now is      374.1 secs

     total energy              =    -184.83183137 Ry
     estimated scf accuracy    <          1.5E-13 Ry

     iteration #  2     ecut=    80.00 Ry     beta= 0.20
     Davidson diagonalization with overlap

---- Real-time Memory Report at c_bands before calling an iterative solver
            93 MiB given to the printing process from OS
            71 MiB allocation reported by mallinfo(arena+hblkhd)
        243585 MiB available memory on the node where the printing process lives
------------------
     ethr =  1.00E-13,  avg # of iterations =  1.0

     total cpu time spent up to now is      375.0 secs

     total energy              =    -184.83183137 Ry
     estimated scf accuracy    <          3.3E-14 Ry

     iteration #  3     ecut=    80.00 Ry     beta= 0.20
     Davidson diagonalization with overlap

---- Real-time Memory Report at c_bands before calling an iterative solver
            93 MiB given to the printing process from OS
            71 MiB allocation reported by mallinfo(arena+hblkhd)
        243585 MiB available memory on the node where the printing process lives
------------------
     ethr =  1.00E-13,  avg # of iterations =  1.0

     total cpu time spent up to now is      376.0 secs

     total energy              =    -184.83183137 Ry
     estimated scf accuracy    <          5.0E-14 Ry

     iteration #  4     ecut=    80.00 Ry     beta= 0.20
     Davidson diagonalization with overlap

---- Real-time Memory Report at c_bands before calling an iterative solver
            93 MiB given to the printing process from OS
            71 MiB allocation reported by mallinfo(arena+hblkhd)
        243585 MiB available memory on the node where the printing process lives
------------------
     ethr =  1.00E-13,  avg # of iterations =  1.0

     total cpu time spent up to now is      376.9 secs

     total energy              =    -184.83183137 Ry
     estimated scf accuracy    <          1.5E-14 Ry

     iteration #  5     ecut=    80.00 Ry     beta= 0.20
     Davidson diagonalization with overlap

---- Real-time Memory Report at c_bands before calling an iterative solver
            93 MiB given to the printing process from OS
            71 MiB allocation reported by mallinfo(arena+hblkhd)
        243585 MiB available memory on the node where the printing process lives
------------------
     ethr =  1.00E-13,  avg # of iterations =  1.0

     total cpu time spent up to now is      377.9 secs

     total energy              =    -184.83183137 Ry
     estimated scf accuracy    <          3.5E-14 Ry

     iteration #  6     ecut=    80.00 Ry     beta= 0.20
     Davidson diagonalization with overlap

---- Real-time Memory Report at c_bands before calling an iterative solver
            93 MiB given to the printing process from OS
            71 MiB allocation reported by mallinfo(arena+hblkhd)
        243585 MiB available memory on the node where the printing process lives
------------------
     ethr =  1.00E-13,  avg # of iterations =  1.0

     total cpu time spent up to now is      378.8 secs

     total energy              =    -184.83183137 Ry
     estimated scf accuracy    <          6.8E-15 Ry

     iteration #  7     ecut=    80.00 Ry     beta= 0.20
     Davidson diagonalization with overlap

---- Real-time Memory Report at c_bands before calling an iterative solver
            93 MiB given to the printing process from OS
            71 MiB allocation reported by mallinfo(arena+hblkhd)
        243585 MiB available memory on the node where the printing process lives
------------------
     ethr =  1.00E-13,  avg # of iterations =  1.0

     total cpu time spent up to now is      379.8 secs

     total energy              =    -184.83183137 Ry
     estimated scf accuracy    <          8.3E-15 Ry

     iteration #  8     ecut=    80.00 Ry     beta= 0.20
     Davidson diagonalization with overlap

---- Real-time Memory Report at c_bands before calling an iterative solver
            93 MiB given to the printing process from OS
            71 MiB allocation reported by mallinfo(arena+hblkhd)
        243584 MiB available memory on the node where the printing process lives
------------------
     ethr =  1.00E-13,  avg # of iterations =  1.0

     total cpu time spent up to now is      380.7 secs

     total energy              =    -184.83183137 Ry
     estimated scf accuracy    <          5.1E-14 Ry

     iteration #  9     ecut=    80.00 Ry     beta= 0.20
     Davidson diagonalization with overlap

---- Real-time Memory Report at c_bands before calling an iterative solver
            93 MiB given to the printing process from OS
            71 MiB allocation reported by mallinfo(arena+hblkhd)
        243584 MiB available memory on the node where the printing process lives
------------------
     ethr =  1.00E-13,  avg # of iterations =  1.0

     total cpu time spent up to now is      381.7 secs

     total energy              =    -184.83183137 Ry
     estimated scf accuracy    <          2.9E-14 Ry

     iteration # 10     ecut=    80.00 Ry     beta= 0.20
     Davidson diagonalization with overlap

---- Real-time Memory Report at c_bands before calling an iterative solver
            93 MiB given to the printing process from OS
            71 MiB allocation reported by mallinfo(arena+hblkhd)
        243584 MiB available memory on the node where the printing process lives
------------------
     ethr =  1.00E-13,  avg # of iterations =  1.0

     total cpu time spent up to now is      382.6 secs

     total energy              =    -184.83183137 Ry
     estimated scf accuracy    <          2.4E-14 Ry

     iteration # 11     ecut=    80.00 Ry     beta= 0.20
     Davidson diagonalization with overlap

---- Real-time Memory Report at c_bands before calling an iterative solver
            93 MiB given to the printing process from OS
            71 MiB allocation reported by mallinfo(arena+hblkhd)
        243584 MiB available memory on the node where the printing process lives
------------------
     ethr =  1.00E-13,  avg # of iterations =  1.0

     total cpu time spent up to now is      383.5 secs

     total energy              =    -184.83183137 Ry
     estimated scf accuracy    <          1.3E-15 Ry

     iteration # 12     ecut=    80.00 Ry     beta= 0.20
     Davidson diagonalization with overlap

---- Real-time Memory Report at c_bands before calling an iterative solver
            93 MiB given to the printing process from OS
            71 MiB allocation reported by mallinfo(arena+hblkhd)
        243584 MiB available memory on the node where the printing process lives
------------------
     ethr =  1.00E-13,  avg # of iterations =  1.0

     total cpu time spent up to now is      384.5 secs

     End of self-consistent calculation

          k = 0.0000 0.0000 0.0000 ( 14855 PWs)   bands (ev):

   -61.8982 -36.1035 -35.8402 -35.8402 -15.3962 -14.0325  -6.9436  -3.8025
    -3.8025  -3.0139  -2.6458  -2.6458  -1.2396

     occupation numbers 
     1.0000   1.0000   1.0000   1.0000   1.0000   1.0000   1.0000   1.0000
     1.0000   1.0000   1.0000   1.0000   1.0000

          k = 0.0000 0.0550 0.0000 ( 14883 PWs)   bands (ev):

   -61.8972 -36.1016 -35.8501 -35.8424 -15.3602 -14.0179  -6.9025  -3.8843
    -3.7647  -3.2325  -2.7047  -2.4783  -1.2521

     occupation numbers 
     1.0000   1.0000   1.0000   1.0000   1.0000   1.0000   1.0000   1.0000
     1.0000   1.0000   1.0000   1.0000   1.0000

          k = 0.0000 0.1100 0.0000 ( 14863 PWs)   bands (ev):

   -61.8943 -36.0959 -35.8786 -35.8489 -15.2541 -13.9747  -6.7850  -4.1077
    -3.6539  -3.5900  -2.8662  -2.2889  -1.3009

     occupation numbers 
     1.0000   1.0000   1.0000   1.0000   1.0000   1.0000   1.0000   1.0000
     1.0000   1.0000   1.0000   1.0000   1.0000

          k = 0.0000 0.1650 0.0000 ( 14855 PWs)   bands (ev):

   -61.8898 -36.0871 -35.9230 -35.8590 -15.0833 -13.9052  -6.6103  -4.4178
    -3.9725  -3.4777  -3.0947  -2.2207  -1.4148

     occupation numbers 
     1.0000   1.0000   1.0000   1.0000   1.0000   1.0000   1.0000   1.0000
     1.0000   1.0000   1.0000   1.0000   1.0000

          k = 0.0000 0.2199 0.0000 ( 14815 PWs)   bands (ev):

   -61.8840 -36.0758 -35.9791 -35.8718 -14.8567 -13.8133  -6.4221  -4.7421
    -4.3628  -3.3528  -3.2496  -2.2913  -1.6168

     occupation numbers 
     1.0000   1.0000   1.0000   1.0000   1.0000   1.0000   1.0000   1.0000
     1.0000   1.0000   1.0000   1.0000   1.0000

          k = 0.0000 0.2749 0.0000 ( 14799 PWs)   bands (ev):

   -61.8775 -36.0631 -36.0417 -35.8862 -14.5873 -13.7046  -6.3062  -4.9913
    -4.7530  -3.6112  -2.9892  -2.4556  -1.8787

     occupation numbers 
     1.0000   1.0000   1.0000   1.0000   1.0000   1.0000   1.0000   1.0000
     1.0000   1.0000   1.0000   1.0000   1.0000

          k = 0.0000 0.3299 0.0000 ( 14811 PWs)   bands (ev):

   -61.8708 -36.1051 -36.0500 -35.9008 -14.2924 -13.5871  -6.3611  -5.1314
    -5.0957  -3.8488  -2.7217  -2.6478  -2.1080

     occupation numbers 
     1.0000   1.0000   1.0000   1.0000   1.0000   1.0000   1.0000   1.0000
     1.0000   1.0000   1.0000   1.0000   1.0000

          k = 0.0000 0.3849 0.0000 ( 14770 PWs)   bands (ev):

   -61.8646 -36.1638 -36.0378 -35.9145 -13.9949 -13.4705  -6.5610  -5.4792
    -5.1241  -4.0516  -2.8205  -2.4760  -2.2010

     occupation numbers 
     1.0000   1.0000   1.0000   1.0000   1.0000   1.0000   1.0000   1.0000
     1.0000   1.0000   1.0000   1.0000   1.0000

          k = 0.0000 0.4399 0.0000 ( 14722 PWs)   bands (ev):

   -61.8594 -36.2126 -36.0275 -35.9259 -13.7239 -13.3668  -6.7970  -5.7720
    -5.1825  -4.2104  -2.9522  -2.2777  -2.1285

     occupation numbers 
     1.0000   1.0000   1.0000   1.0000   1.0000   1.0000   1.0000   1.0000
     1.0000   1.0000   1.0000   1.0000   1.0000

          k = 0.0000 0.4949 0.0000 ( 14716 PWs)   bands (ev):

   -61.8556 -36.2476 -36.0201 -35.9341 -13.5135 -13.2882  -6.9936  -5.9847
    -5.2684  -4.3192  -3.0380  -2.1428  -1.9699

     occupation numbers 
     1.0000   1.0000   1.0000   1.0000   1.0000   1.0000   1.0000   1.0000
     1.0000   1.0000   1.0000   1.0000   1.0000

          k = 0.0000 0.5499 0.0000 ( 14720 PWs)   bands (ev):

   -61.8536 -36.2658 -36.0162 -35.9384 -13.3972 -13.2457  -7.1045  -6.0968
    -5.3289  -4.3745  -3.0796  -2.0758  -1.8483

     occupation numbers 
     1.0000   1.0000   1.0000   1.0000   1.0000   1.0000   1.0000   1.0000
     1.0000   1.0000   1.0000   1.0000   1.0000

          k = 0.0476 0.0825 0.0000 ( 14875 PWs)   bands (ev):

   -61.8952 -36.0978 -35.8690 -35.8469 -15.2892 -13.9890  -6.8231  -4.0362
    -3.6910  -3.4858  -2.8308  -2.3176  -1.2827

     occupation numbers 
     1.0000   1.0000   1.0000   1.0000   1.0000   1.0000   1.0000   1.0000
     1.0000   1.0000   1.0000   1.0000   1.0000

          k = 0.0476 0.1375 0.0000 ( 14858 PWs)   bands (ev):

   -61.8915 -36.0905 -35.9051 -35.8557 -15.1507 -13.9326  -6.6759  -4.3007
    -3.8180  -3.5500  -3.0616  -2.1855  -1.3639

     occupation numbers 
     1.0000   1.0000   1.0000   1.0000   1.0000   1.0000   1.0000   1.0000
     1.0000   1.0000   1.0000   1.0000   1.0000

          k = 0.0476 0.1925 0.0000 ( 14822 PWs)   bands (ev):

   -61.8864 -36.0805 -35.9547 -35.8678 -14.9519 -13.8518  -6.4904  -4.6148
    -4.1774  -3.3541  -3.3406  -2.1713  -1.5231

     occupation numbers 
     1.0000   1.0000   1.0000   1.0000   1.0000   1.0000   1.0000   1.0000
     1.0000   1.0000   1.0000   1.0000   1.0000

          k = 0.0476 0.2474 0.0000 ( 14793 PWs)   bands (ev):

   -61.8803 -36.0685 -36.0132 -35.8822 -14.7036 -13.7512  -6.3292  -4.8982
    -4.5540  -3.6190  -3.1244  -2.2795  -1.7580

     occupation numbers 
     1.0000   1.0000   1.0000   1.0000   1.0000   1.0000   1.0000   1.0000
     1.0000   1.0000   1.0000   1.0000   1.0000

          k = 0.0476 0.3024 0.0000 ( 14812 PWs)   bands (ev):

   -61.8737 -36.0754 -36.0556 -35.8975 -14.4208 -13.6375  -6.2960  -5.0603
    -4.9388  -3.8637  -2.8942  -2.4612  -1.9974

     occupation numbers 
     1.0000   1.0000   1.0000   1.0000   1.0000   1.0000   1.0000   1.0000
     1.0000   1.0000   1.0000   1.0000   1.0000

          k = 0.0476 0.3574 0.0000 ( 14790 PWs)   bands (ev):

   -61.8672 -36.1356 -36.0429 -35.9125 -14.1235 -13.5195  -6.4360  -5.3122
    -5.0973  -4.0608  -2.7090  -2.6593  -2.1176

     occupation numbers 
     1.0000   1.0000   1.0000   1.0000   1.0000   1.0000   1.0000   1.0000
     1.0000   1.0000   1.0000   1.0000   1.0000

          k = 0.0476 0.4124 0.0000 ( 14759 PWs)   bands (ev):

   -61.8615 -36.1886 -36.0317 -35.9257 -13.8375 -13.4081  -6.6604  -5.6458
    -5.1295  -4.2089  -2.8348  -2.5756  -2.0591

     occupation numbers 
     1.0000   1.0000   1.0000   1.0000   1.0000   1.0000   1.0000   1.0000
     1.0000   1.0000   1.0000   1.0000   1.0000

          k = 0.0476 0.4674 0.0000 ( 14731 PWs)   bands (ev):

   -61.8570 -36.2300 -36.0228 -35.9361 -13.5945 -13.3157  -6.8767  -5.9101
    -5.2085  -4.3112  -2.9674  -2.4471  -1.9112

     occupation numbers 
     1.0000   1.0000   1.0000   1.0000   1.0000   1.0000   1.0000   1.0000
     1.0000   1.0000   1.0000   1.0000   1.0000

          k = 0.0476 0.5224 0.0000 ( 14718 PWs)   bands (ev):

   -61.8541 -36.2562 -36.0172 -35.9427 -13.4289 -13.2542  -7.0294  -6.0800
    -5.2904  -4.3712  -3.0486  -2.3463  -1.7694

     occupation numbers 
     1.0000   1.0000   1.0000   1.0000   1.0000   1.0000   1.0000   1.0000
     1.0000   1.0000   1.0000   1.0000   1.0000

          k = 0.0476 0.5774 0.0000 ( 14714 PWs)   bands (ev):

   -61.8531 -36.2652 -36.0152 -35.9450 -13.3699 -13.2325  -7.0845  -6.1386
    -5.3240  -4.3910  -3.0758  -2.3098  -1.7098

     occupation numbers 
     1.0000   1.0000   1.0000   1.0000   1.0000   1.0000   1.0000   1.0000
     1.0000   1.0000   1.0000   1.0000   1.0000

          k = 0.0952 0.1650 0.0000 ( 14827 PWs)   bands (ev):

   -61.8872 -36.0821 -35.9454 -35.8672 -14.9841 -13.8648  -6.5149  -4.5655
    -4.0857  -3.3944  -3.3916  -2.0924  -1.4910

     occupation numbers 
     1.0000   1.0000   1.0000   1.0000   1.0000   1.0000   1.0000   1.0000
     1.0000   1.0000   1.0000   1.0000   1.0000

          k = 0.0952 0.2199 0.0000 ( 14813 PWs)   bands (ev):

   -61.8817 -36.0713 -35.9961 -35.8823 -14.7633 -13.7749  -6.3454  -4.8337
    -4.3833  -3.7486  -3.2129  -2.0969  -1.6877

     occupation numbers 
     1.0000   1.0000   1.0000   1.0000   1.0000   1.0000   1.0000   1.0000
     1.0000   1.0000   1.0000   1.0000   1.0000

          k = 0.0952 0.2749 0.0000 ( 14793 PWs)   bands (ev):

   -61.8755 -36.0591 -36.0525 -35.8994 -14.5008 -13.6685  -6.2526  -5.0168
    -4.7356  -4.0371  -3.0505  -2.2131  -1.9053

     occupation numbers 
     1.0000   1.0000   1.0000   1.0000   1.0000   1.0000   1.0000   1.0000
     1.0000   1.0000   1.0000   1.0000   1.0000

          k = 0.0952 0.3299 0.0000 ( 14799 PWs)   bands (ev):

   -61.8691 -36.1095 -36.0466 -35.9169 -14.2141 -13.5530  -6.3186  -5.1310
    -5.0609  -4.2233  -2.9644  -2.4030  -2.0320

     occupation numbers 
     1.0000   1.0000   1.0000   1.0000   1.0000   1.0000   1.0000   1.0000
     1.0000   1.0000   1.0000   1.0000   1.0000

          k = 0.0952 0.3849 0.0000 ( 14771 PWs)   bands (ev):

   -61.8632 -36.1624 -36.0349 -35.9333 -13.9255 -13.4383  -6.5021  -5.5158
    -5.0575  -4.3297  -2.9400  -2.6172  -2.0030

     occupation numbers 
     1.0000   1.0000   1.0000   1.0000   1.0000   1.0000   1.0000   1.0000
     1.0000   1.0000   1.0000   1.0000   1.0000

          k = 0.0952 0.4399 0.0000 ( 14747 PWs)   bands (ev):

   -61.8582 -36.2064 -36.0251 -35.9469 -13.6636 -13.3358  -6.7081  -5.8430
    -5.1119  -4.3822  -2.8869  -2.8155  -1.8769

     occupation numbers 
     1.0000   1.0000   1.0000   1.0000   1.0000   1.0000   1.0000   1.0000
     1.0000   1.0000   1.0000   1.0000   1.0000

          k = 0.0952 0.4949 0.0000 ( 14735 PWs)   bands (ev):

   -61.8546 -36.2379 -36.0180 -35.9568 -13.4609 -13.2580  -6.8763  -6.0795
    -5.2079  -4.4013  -2.9676  -2.8074  -1.7238

     occupation numbers 
     1.0000   1.0000   1.0000   1.0000   1.0000   1.0000   1.0000   1.0000
     1.0000   1.0000   1.0000   1.0000   1.0000

          k = 0.0952 0.5499 0.0000 ( 14714 PWs)   bands (ev):

   -61.8527 -36.2544 -36.0143 -35.9619 -13.3494 -13.2159  -6.9704  -6.2035
    -5.2771  -4.4048  -3.0507  -2.7553  -1.6141

     occupation numbers 
     1.0000   1.0000   1.0000   1.0000   1.0000   1.0000   1.0000   1.0000
     1.0000   1.0000   1.0000   1.0000   1.0000

          k = 0.1429 0.2474 0.0000 ( 14801 PWs)   bands (ev):

   -61.8761 -36.0603 -36.0435 -35.9011 -14.5280 -13.6789  -6.2373  -4.9973
    -4.6138  -4.1607  -3.1107  -2.1019  -1.8715

     occupation numbers 
     1.0000   1.0000   1.0000   1.0000   1.0000   1.0000   1.0000   1.0000
     1.0000   1.0000   1.0000   1.0000   1.0000

          k = 0.1429 0.3024 0.0000 ( 14798 PWs)   bands (ev):

   -61.8701 -36.0930 -36.0486 -35.9221 -14.2608 -13.5700  -6.2460  -5.0342
    -4.9682  -4.4028  -3.1192  -2.2150  -1.9883

     occupation numbers 
     1.0000   1.0000   1.0000   1.0000   1.0000   1.0000   1.0000   1.0000
     1.0000   1.0000   1.0000   1.0000   1.0000

          k = 0.1429 0.3574 0.0000 ( 14791 PWs)   bands (ev):

   -61.8642 -36.1406 -36.0370 -35.9432 -13.9811 -13.4564  -6.3710  -5.3930
    -4.9870  -4.4863  -3.2287  -2.4087  -1.9825

     occupation numbers 
     1.0000   1.0000   1.0000   1.0000   1.0000   1.0000   1.0000   1.0000
     1.0000   1.0000   1.0000   1.0000   1.0000

          k = 0.1429 0.4124 0.0000 ( 14771 PWs)   bands (ev):

   -61.8590 -36.1822 -36.0268 -35.9621 -13.7138 -13.3486  -6.5361  -5.7808
    -4.9877  -4.4932  -3.3137  -2.6359  -1.8853

     occupation numbers 
     1.0000   1.0000   1.0000   1.0000   1.0000   1.0000   1.0000   1.0000
     1.0000   1.0000   1.0000   1.0000   1.0000

          k = 0.1429 0.4674 0.0000 ( 14749 PWs)   bands (ev):

   -61.8549 -36.2147 -36.0187 -35.9770 -13.4884 -13.2587  -6.6837  -6.0844
    -5.0796  -4.4594  -3.3157  -2.8505  -1.7359

     occupation numbers 
     1.0000   1.0000   1.0000   1.0000   1.0000   1.0000   1.0000   1.0000
     1.0000   1.0000   1.0000   1.0000   1.0000

          k = 0.1429 0.5224 0.0000 ( 14744 PWs)   bands (ev):

   -61.8523 -36.2352 -36.0136 -35.9866 -13.3360 -13.1985  -6.7832  -6.2772
    -5.1883  -4.4154  -3.2855  -3.0082  -1.5869

     occupation numbers 
     1.0000   1.0000   1.0000   1.0000   1.0000   1.0000   1.0000   1.0000
     1.0000   1.0000   1.0000   1.0000   1.0000

          k = 0.1429 0.5774 0.0000 ( 14722 PWs)   bands (ev):

   -61.8514 -36.2423 -36.0118 -35.9899 -13.2820 -13.1773  -6.8183  -6.3434
    -5.2339  -4.3950  -3.2712  -3.0673  -1.5216

     occupation numbers 
     1.0000   1.0000   1.0000   1.0000   1.0000   1.0000   1.0000   1.0000
     1.0000   1.0000   1.0000   1.0000   1.0000

          k = 0.1905 0.3299 0.0000 ( 14781 PWs)   bands (ev):

   -61.8646 -36.1318 -36.0378 -35.9479 -14.0001 -13.4625  -6.3193  -5.3344
    -4.9551  -4.5624  -3.3419  -2.3228  -1.9784

     occupation numbers 
     1.0000   1.0000   1.0000   1.0000   1.0000   1.0000   1.0000   1.0000
     1.0000   1.0000   1.0000   1.0000   1.0000

          k = 0.1905 0.3849 0.0000 ( 14753 PWs)   bands (ev):

   -61.8594 -36.1659 -36.0277 -35.9738 -13.7401 -13.3548  -6.4245  -5.7388
    -4.8773  -4.5745  -3.6037  -2.5147  -1.9007

     occupation numbers 
     1.0000   1.0000   1.0000   1.0000   1.0000   1.0000   1.0000   1.0000
     1.0000   1.0000   1.0000   1.0000   1.0000

          k = 0.1905 0.4399 0.0000 ( 14749 PWs)   bands (ev):

   -61.8551 -36.1933 -36.0192 -35.9966 -13.5068 -13.2580  -6.5159  -6.0881
    -4.9121  -4.5149  -3.7710  -2.7444  -1.7644

     occupation numbers 
     1.0000   1.0000   1.0000   1.0000   1.0000   1.0000   1.0000   1.0000
     1.0000   1.0000   1.0000   1.0000   1.0000

          k = 0.1905 0.4949 0.0000 ( 14736 PWs)   bands (ev):

   -61.8520 -36.2123 -36.0137 -36.0130 -13.3287 -13.1840  -6.5730  -6.3404
    -5.0497  -4.4259  -3.8190  -2.9581  -1.5924

     occupation numbers 
     1.0000   1.0000   1.0000   1.0000   1.0000   1.0000   1.0000   1.0000
     1.0000   1.0000   1.0000   1.0000   1.0000

          k = 0.1905 0.5499 0.0000 ( 14754 PWs)   bands (ev):

   -61.8504 -36.2221 -36.0227 -36.0098 -13.2316 -13.1438  -6.5967  -6.4724
    -5.1634  -4.3561  -3.8210  -3.0938  -1.4613

     occupation numbers 
     1.0000   1.0000   1.0000   1.0000   1.0000   1.0000   1.0000   1.0000
     1.0000   1.0000   1.0000   1.0000   1.0000

          k = 0.2381 0.4124 0.0000 ( 14762 PWs)   bands (ev):

   -61.8552 -36.1840 -36.0193 -36.0053 -13.5133 -13.2576  -6.4480  -6.0893
    -4.8019  -4.5374  -3.9900  -2.7014  -1.7778

     occupation numbers 
     1.0000   1.0000   1.0000   1.0000   1.0000   1.0000   1.0000   1.0000
     1.0000   1.0000   1.0000   1.0000   1.0000

          k = 0.2381 0.4674 0.0000 ( 14739 PWs)   bands (ev):

   -61.8519 -36.1948 -36.0335 -36.0128 -13.3256 -13.1758  -6.4258  -6.3765
    -4.8647  -4.4335  -4.2469  -2.9229  -1.6026

     occupation numbers 
     1.0000   1.0000   1.0000   1.0000   1.0000   1.0000   1.0000   1.0000
     1.0000   1.0000   1.0000   1.0000   1.0000

          k = 0.2381 0.5224 0.0000 ( 14764 PWs)   bands (ev):

   -61.8497 -36.1996 -36.0535 -36.0086 -13.2009 -13.1208  -6.5624  -6.3713
    -5.0550  -4.3191  -4.3167  -3.1165  -1.4219

     occupation numbers 
     1.0000   1.0000   1.0000   1.0000   1.0000   1.0000   1.0000   1.0000
     1.0000   1.0000   1.0000   1.0000   1.0000

          k = 0.2381 0.5774 0.0000 ( 14776 PWs)   bands (ev):

   -61.8490 -36.2007 -36.0609 -36.0071 -13.1571 -13.1013  -6.6266  -6.3387
    -5.1542  -4.3275  -4.2612  -3.1987  -1.3397

     occupation numbers 
     1.0000   1.0000   1.0000   1.0000   1.0000   1.0000   1.0000   1.0000
     1.0000   1.0000   1.0000   1.0000   1.0000

          k = 0.2857 0.4949 0.0000 ( 14730 PWs)   bands (ev):

   -61.8495 -36.1880 -36.0679 -36.0081 -13.1906 -13.1126  -6.5947  -6.2673
    -4.9437  -4.5904  -4.3005  -3.1252  -1.4073

     occupation numbers 
     1.0000   1.0000   1.0000   1.0000   1.0000   1.0000   1.0000   1.0000
     1.0000   1.0000   1.0000   1.0000   1.0000

          k = 0.2857 0.5499 0.0000 ( 14738 PWs)   bands (ev):

   -61.8483 -36.1787 -36.0917 -36.0057 -13.1184 -13.0780  -6.7112  -6.0967
    -5.1875  -4.6622  -4.1862  -3.2764  -1.2554

     occupation numbers 
     1.0000   1.0000   1.0000   1.0000   1.0000   1.0000   1.0000   1.0000
     1.0000   1.0000   1.0000   1.0000   1.0000

          k = 0.3333 0.5774 0.0000 ( 14760 PWs)   bands (ev):

   -61.8478 -36.1630 -36.1133 -36.0048 -13.0899 -13.0629  -6.7634  -5.8971
    -5.3732  -4.7462  -4.1206  -3.3520  -1.1798

     occupation numbers 
     1.0000   1.0000   1.0000   1.0000   1.0000   1.0000   1.0000   1.0000
     1.0000   1.0000   1.0000   1.0000   1.0000

     highest occupied level (ev):    -1.1798

!    total energy              =    -184.83183137 Ry
     estimated scf accuracy    <          9.3E-16 Ry

     convergence has been achieved in  12 iterations

     Forces acting on atoms (cartesian axes, Ry/au):

     atom    1 type  1   force =     0.00000000   -0.00000000    0.00000000
     atom    2 type  2   force =     0.00000000   -0.00000000    0.00000004
     atom    3 type  2   force =     0.00000000    0.00000000   -0.00000004
     The non-local contrib.  to forces
     atom    1 type  1   force =     0.00000000    0.00000000    0.00000000
     atom    2 type  2   force =     0.00000000    0.00000000   -0.25587847
     atom    3 type  2   force =     0.00000000   -0.00000000    0.25587847
     The ionic contribution  to forces
     atom    1 type  1   force =     0.00000001    0.00000097    0.00000000
     atom    2 type  2   force =    -0.00000000   -0.00000048   37.43241036
     atom    3 type  2   force =    -0.00000000   -0.00000048  -37.43241036
     The local contribution  to forces
     atom    1 type  1   force =     0.00000000    0.00002380    0.00000000
     atom    2 type  2   force =    -0.00000001    0.00000001  -37.18071537
     atom    3 type  2   force =    -0.00000001    0.00000001   37.18071537
     The core correction contribution to forces
     atom    1 type  1   force =    -0.00000000   -0.00000040   -0.00000000
     atom    2 type  2   force =     0.00000000   -0.00000000    0.00418347
     atom    3 type  2   force =     0.00000000   -0.00000000   -0.00418347
     The Hubbard contrib.    to forces
     atom    1 type  1   force =     0.00000000    0.00000000    0.00000000
     atom    2 type  2   force =     0.00000000    0.00000000    0.00000000
     atom    3 type  2   force =     0.00000000    0.00000000    0.00000000
     The SCF correction term to forces
     atom    1 type  1   force =    -0.00000000   -0.00000000   -0.00000000
     atom    2 type  2   force =     0.00000000    0.00000000    0.00000006
     atom    3 type  2   force =     0.00000000   -0.00000000   -0.00000006

     Total force =     0.000000     Total SCF correction =     0.000000
     SCF correction compared to forces is large: reduce conv_thr to get better values

     Damped Dynamics: convergence achieved in  11 steps

     End of damped dynamics calculation

     Final energy =    -184.8318313666 Ry

Begin final coordinates
     new unit-cell volume =   1222.67245 a.u.^3 (   181.18136 Ang^3 )
     density =      1.46714 g/cm^3

CELL_PARAMETERS (alat=  5.94125432)
   1.000000000   0.000000000   0.000000000
  -0.500000000   0.866025404   0.000000000
   0.000000000   0.000000000   6.732014870

ATOMIC_POSITIONS (crystal)
Mo               0.3333333000        0.6666666000        0.5000000000    0   0   0
S                0.6666666670        0.3333333330        0.5735918446    0   0   1
S                0.6666666670        0.3333333330        0.4264081554    0   0   1
End final coordinates



     Writing all to output data dir ./tmp/MoS2.save/ :
     XML data file, charge density, pseudopotentials, collected wavefunctions

     init_run     :      2.46s CPU      2.85s WALL (       1 calls)
     electrons    :    336.12s CPU    359.29s WALL (      12 calls)
     update_pot   :      0.33s CPU      0.35s WALL (      11 calls)
     forces       :      1.31s CPU      1.33s WALL (      12 calls)

     Called by init_run:
     wfcinit      :      0.48s CPU      0.54s WALL (       1 calls)
     wfcinit:atom :      0.01s CPU      0.01s WALL (      48 calls)
     wfcinit:wfcr :      0.45s CPU      0.50s WALL (      48 calls)
     potinit      :      1.11s CPU      1.18s WALL (       1 calls)
     hinit0       :      0.24s CPU      0.30s WALL (       1 calls)

     Called by electrons:
     c_bands      :    278.44s CPU    299.35s WALL (     331 calls)
     sum_band     :     47.41s CPU     48.56s WALL (     331 calls)
     v_of_rho     :      7.77s CPU      7.82s WALL (     332 calls)
     v_h          :      0.65s CPU      0.65s WALL (     332 calls)
     v_xc         :      7.38s CPU      7.43s WALL (     344 calls)
     mix_rho      :      1.28s CPU      1.28s WALL (     331 calls)

     Called by c_bands:
     init_us_2    :      6.87s CPU      7.44s WALL (   32400 calls)
     cegterg      :    258.26s CPU    266.99s WALL (   15888 calls)

     Called by sum_band:
     sum_band:wei :      0.00s CPU      0.00s WALL (     331 calls)
     sum_band:loo :     46.32s CPU     47.45s WALL (     331 calls)
     sum_band:buf :      0.21s CPU      0.21s WALL (   15888 calls)
     sum_band:ini :      3.22s CPU      3.30s WALL (   15888 calls)

     Called by *egterg:
     cdiaghg      :     17.46s CPU     17.87s WALL (   46184 calls)
     cegterg:over :      8.55s CPU      8.71s WALL (   31352 calls)
     cegterg:upda :      2.18s CPU      2.23s WALL (   31352 calls)
     cegterg:last :      2.53s CPU      2.58s WALL (   23900 calls)
     h_psi        :    220.33s CPU    228.36s WALL (   47288 calls)
     g_psi        :      0.53s CPU      0.54s WALL (   31352 calls)

     Called by h_psi:
     h_psi:calbec :     12.42s CPU     12.68s WALL (   47288 calls)
     vloc_psi     :    200.10s CPU    207.71s WALL (   47288 calls)
                                        0.00s GPU  (   47288 calls)
     add_vuspsi   :      7.07s CPU      7.22s WALL (   47288 calls)

     General routines
     calbec       :     12.89s CPU     13.18s WALL (   49592 calls)
     fft          :      7.17s CPU      7.25s WALL (    4102 calls)
     ffts         :      0.93s CPU      0.94s WALL (     663 calls)
     fftw         :    229.57s CPU    237.71s WALL ( 1161244 calls)
     interpolate  :      1.32s CPU      1.33s WALL (     332 calls)

     Parallel routines

     PWSCF        :   5m49.33s CPU   6m26.11s WALL


   This run was terminated on:   1:12: 8  13Mar2026            

=------------------------------------------------------------------------------=
   JOB DONE.
=------------------------------------------------------------------------------=
