
     Program PWSCF v.7.5 starts on 12Mar2026 at  1:53:51 
        Git branch: HEAD
        Last git commit: 770a0b2d12928a67048e2f3da8d10d057e52179e
        Last git commit date: Tue Aug 19 09:57:12 2025 +0000
        Last git commit subject: Merge branch 'QE-7.5-RC' into 'master'

     This program is part of the open-source Quantum ESPRESSO suite
     for quantum simulation of materials; please cite
         "P. Giannozzi et al., J. Phys.:Condens. Matter 21 395502 (2009);
         "P. Giannozzi et al., J. Phys.:Condens. Matter 29 465901 (2017);
         "P. Giannozzi et al., J. Chem. Phys. 152 154105 (2020);
          URL http://www.quantum-espresso.org", 
     in publications or presentations arising from this work. More details at
     http://www.quantum-espresso.org/quote

     Parallel version (MPI), running on    64 processors

     MPI processes distributed on     4 nodes
     245066 MiB available memory on the printing compute node when the environment starts

     Waiting for input...
     Reading input from standard input

     Current dimensions of program PWSCF are:
     Max number of different atomic species (ntypx) = 10
     Max number of k-points (npk) =  40000
     Max angular momentum in pseudopotentials (lmaxx) =  4

     Atomic positions and unit cell read from directory:
     ./tmp/MoS2.save/


     R & G space division:  proc/nbgrp/npool/nimage =      64
     Subspace diagonalization in iterative solution of the eigenvalue problem:
     one sub-group per band group will be used
     custom distributed-memory algorithm (size of sub-group:  2*  2 procs)


     Parallelization info
     --------------------
     sticks:   dense  smooth     PW     G-vecs:    dense   smooth      PW
     Min          12      12      3                 1830     1830     275
     Max          13      13      4                 1861     1861     314
     Sum         769     769    223               118307   118307   18477

     Using Slab Decomposition



     bravais-lattice index     =            4
     lattice parameter (alat)  =       5.9477  a.u.
     unit-cell volume          =    1225.4506 (a.u.)^3
     number of atoms/cell      =            3
     number of atomic types    =            2
     number of electrons       =        26.00
     number of Kohn-Sham states=          200
     kinetic-energy cutoff     =      80.0000  Ry
     charge density cutoff     =     320.0000  Ry
     Exchange-correlation= PBESOL
                           (   1   4  10   8   0   0   0)

     celldm(1)=   5.947749  celldm(2)=   0.000000  celldm(3)=   6.725234
     celldm(4)=   0.000000  celldm(5)=   0.000000  celldm(6)=   0.000000

     crystal axes: (cart. coord. in units of alat)
               a(1) = (   1.000000   0.000000   0.000000 )  
               a(2) = (  -0.500000   0.866025   0.000000 )  
               a(3) = (   0.000000   0.000000   6.725234 )  

     reciprocal axes: (cart. coord. in units 2 pi/alat)
               b(1) = (  1.000000  0.577350 -0.000000 )  
               b(2) = (  0.000000  1.154701  0.000000 )  
               b(3) = (  0.000000 -0.000000  0.148694 )  


     PseudoPot. # 1 for Mo read from file:
     ../pseudo/Mo.pbesol.dojo.upf
     MD5 check sum: c40353276b9086539cda6b9e5a66907b
     Pseudo is Norm-conserving + core correction, Zval = 14.0
     Generated using ONCVPSP code by D. R. Hamann
     Using radial grid of 1640 points,  6 beta functions with: 
                l(1) =   0
                l(2) =   0
                l(3) =   1
                l(4) =   1
                l(5) =   2
                l(6) =   2

     PseudoPot. # 2 for S  read from file:
     ../pseudo/S.pbesol.dojo.upf
     MD5 check sum: 501737efeeef1fb1c631cda521d4e019
     Pseudo is Norm-conserving + core correction, Zval =  6.0
     Generated using ONCVPSP code by D. R. Hamann
     Using radial grid of 1146 points,  6 beta functions with: 
                l(1) =   0
                l(2) =   0
                l(3) =   1
                l(4) =   1
                l(5) =   2
                l(6) =   2

     atomic species   valence    mass     pseudopotential
     Mo               14.00    95.95000     Mo( 1.00)
     S                 6.00    32.06500     S ( 1.00)

     12 Sym. Ops. (no inversion) found


                                    s                        frac. trans.

      isym =  1     identity                                     

 cryst.   s( 1) = (     1          0          0      )
                  (     0          1          0      )
                  (     0          0          1      )

 cart.    s( 1) = (  1.0000000  0.0000000  0.0000000 )
                  (  0.0000000  1.0000000  0.0000000 )
                  (  0.0000000  0.0000000  1.0000000 )


      isym =  2     180 deg rotation - cart. axis [0,1,0]        

 cryst.   s( 2) = (    -1          0          0      )
                  (     1          1          0      )
                  (     0          0         -1      )

 cart.    s( 2) = ( -1.0000000  0.0000000  0.0000000 )
                  (  0.0000000  1.0000000  0.0000000 )
                  (  0.0000000  0.0000000 -1.0000000 )


      isym =  3     120 deg rotation - cryst. axis [0,0,1]       

 cryst.   s( 3) = (     0          1          0      )
                  (    -1         -1          0      )
                  (     0          0          1      )

 cart.    s( 3) = ( -0.5000000 -0.8660254  0.0000000 )
                  (  0.8660254 -0.5000000  0.0000000 )
                  (  0.0000000  0.0000000  1.0000000 )


      isym =  4     120 deg rotation - cryst. axis [0,0,-1]      

 cryst.   s( 4) = (    -1         -1          0      )
                  (     1          0          0      )
                  (     0          0          1      )

 cart.    s( 4) = ( -0.5000000  0.8660254  0.0000000 )
                  ( -0.8660254 -0.5000000  0.0000000 )
                  (  0.0000000  0.0000000  1.0000000 )


      isym =  5     180 deg rotation - cryst. axis [1,-1,0]      

 cryst.   s( 5) = (     0         -1          0      )
                  (    -1          0          0      )
                  (     0          0         -1      )

 cart.    s( 5) = (  0.5000000 -0.8660254  0.0000000 )
                  ( -0.8660254 -0.5000000  0.0000000 )
                  (  0.0000000  0.0000000 -1.0000000 )


      isym =  6     180 deg rotation - cryst. axis [2,1,0]       

 cryst.   s( 6) = (     1          1          0      )
                  (     0         -1          0      )
                  (     0          0         -1      )

 cart.    s( 6) = (  0.5000000  0.8660254  0.0000000 )
                  (  0.8660254 -0.5000000  0.0000000 )
                  (  0.0000000  0.0000000 -1.0000000 )


      isym =  7     inv. 180 deg rotation - cart. axis [0,0,1]   

 cryst.   s( 7) = (     1          0          0      )
                  (     0          1          0      )
                  (     0          0         -1      )

 cart.    s( 7) = (  1.0000000  0.0000000  0.0000000 )
                  (  0.0000000  1.0000000  0.0000000 )
                  (  0.0000000  0.0000000 -1.0000000 )


      isym =  8     inv. 180 deg rotation - cart. axis [1,0,0]   

 cryst.   s( 8) = (    -1          0          0      )
                  (     1          1          0      )
                  (     0          0          1      )

 cart.    s( 8) = ( -1.0000000  0.0000000  0.0000000 )
                  (  0.0000000  1.0000000  0.0000000 )
                  (  0.0000000  0.0000000  1.0000000 )


      isym =  9     inv.  60 deg rotation - cryst. axis [0,0,1]  

 cryst.   s( 9) = (    -1         -1          0      )
                  (     1          0          0      )
                  (     0          0         -1      )

 cart.    s( 9) = ( -0.5000000  0.8660254  0.0000000 )
                  ( -0.8660254 -0.5000000  0.0000000 )
                  (  0.0000000  0.0000000 -1.0000000 )


      isym = 10     inv.  60 deg rotation - cryst. axis [0,0,-1] 

 cryst.   s(10) = (     0          1          0      )
                  (    -1         -1          0      )
                  (     0          0         -1      )

 cart.    s(10) = ( -0.5000000 -0.8660254  0.0000000 )
                  (  0.8660254 -0.5000000  0.0000000 )
                  (  0.0000000  0.0000000 -1.0000000 )


      isym = 11     inv. 180 deg rotation - cryst. axis [0,1,0]  

 cryst.   s(11) = (     1          1          0      )
                  (     0         -1          0      )
                  (     0          0          1      )

 cart.    s(11) = (  0.5000000  0.8660254  0.0000000 )
                  (  0.8660254 -0.5000000  0.0000000 )
                  (  0.0000000  0.0000000  1.0000000 )


      isym = 12     inv. 180 deg rotation - cryst. axis [1,1,0]  

 cryst.   s(12) = (     0         -1          0      )
                  (    -1          0          0      )
                  (     0          0          1      )

 cart.    s(12) = (  0.5000000 -0.8660254  0.0000000 )
                  ( -0.8660254 -0.5000000  0.0000000 )
                  (  0.0000000  0.0000000  1.0000000 )


     point group D_3h (-62m)
     there are  6 classes
     the character table:

       E     2C3   3C2   s_h   2S3   3s_v 
A'_1   1.00  1.00  1.00  1.00  1.00  1.00
A'_2   1.00  1.00 -1.00  1.00  1.00 -1.00
E'     2.00 -1.00  0.00  2.00 -1.00  0.00
A''1   1.00  1.00  1.00 -1.00 -1.00 -1.00
A''2   1.00  1.00 -1.00 -1.00 -1.00  1.00
E''    2.00 -1.00  0.00 -2.00  1.00  0.00

     the symmetry operations in each class and the name of the first element:

     E        1
          identity                                               
     2C3      3    4
          120 deg rotation - cryst. axis [0,0,1]                 
     3C2      2    6    5
          180 deg rotation - cart. axis [0,1,0]                  
     s_h      7
          inv. 180 deg rotation - cart. axis [0,0,1]             
     2S3      9   10
          inv.  60 deg rotation - cryst. axis [0,0,1]            
     3s_v     8   11   12
          inv. 180 deg rotation - cart. axis [1,0,0]             

   Cartesian axes

     site n.     atom                  positions (alat units)
         1        Mo     tau(   1) = (   0.0000000   0.5773502   0.0000000  )
         2        S      tau(   2) = (   0.5000000   0.2886751   0.4945031  )
         3        S      tau(   3) = (   0.5000000   0.2886751  -0.4945031  )

     Fixed atoms
     site n.  direction
         1    1   1   1
         2    0   0   1
         3    0   0   1

   Crystallographic axes

     site n.     atom                  positions (cryst. coord.)
         1        Mo     tau(   1) = (  0.3333333  0.6666666  0.0000000  )
         2        S      tau(   2) = (  0.6666667  0.3333333  0.0735295  )
         3        S      tau(   3) = (  0.6666667  0.3333333 -0.0735295  )

     number of k points=     7
                       cart. coord. in units 2pi/alat
        k(    1) = (   0.0000000   0.0000000   0.0000000), wk =   0.0555556
        k(    2) = (   0.0000000   0.1924501   0.0000000), wk =   0.3333333
        k(    3) = (   0.0000000   0.3849002   0.0000000), wk =   0.3333333
        k(    4) = (   0.0000000  -0.5773503   0.0000000), wk =   0.1666667
        k(    5) = (   0.1666667   0.2886751   0.0000000), wk =   0.3333333
        k(    6) = (   0.1666667   0.4811252   0.0000000), wk =   0.6666667
        k(    7) = (   0.3333333   0.5773503   0.0000000), wk =   0.1111111

                       cryst. coord.
        k(    1) = (   0.0000000   0.0000000   0.0000000), wk =   0.0555556
        k(    2) = (   0.0000000   0.1666667   0.0000000), wk =   0.3333333
        k(    3) = (   0.0000000   0.3333333   0.0000000), wk =   0.3333333
        k(    4) = (   0.0000000  -0.5000000   0.0000000), wk =   0.1666667
        k(    5) = (   0.1666667   0.1666667   0.0000000), wk =   0.3333333
        k(    6) = (   0.1666667   0.3333333   0.0000000), wk =   0.6666667
        k(    7) = (   0.3333333   0.3333333   0.0000000), wk =   0.1111111

     Dense  grid:   118307 G-vectors     FFT dimensions: (  36,  36, 240)

     Dynamical RAM for                 wfc:       0.70 MB

     Dynamical RAM for     wfc (w. buffer):       0.70 MB

     Dynamical RAM for           str. fact:       0.06 MB

     Dynamical RAM for           local pot:       0.00 MB

     Dynamical RAM for          nlocal pot:       0.19 MB

     Dynamical RAM for                qrad:       2.87 MB

     Dynamical RAM for          rho,v,vnew:       0.20 MB

     Dynamical RAM for           G-vectors:       0.12 MB

     Dynamical RAM for          h,s,v(r/c):       1.83 MB

     Dynamical RAM for          <psi|beta>:       0.16 MB

     Dynamical RAM for                 psi:       1.41 MB

     Dynamical RAM for                hpsi:       1.41 MB

     Dynamical RAM for      wfcinit/wfcrot:       2.33 MB

     Estimated static dynamical RAM per process >       4.43 MB

     Estimated max dynamical RAM per process >       9.25 MB

     Estimated total dynamical RAM >     591.71 MB
 ----2D----2D----2D----2D----2D----2D----2D----2D----2D----2D----2D----2D
  The code is running with the 2D cutoff
  Please refer to:
  Sohier, T., Calandra, M., & Mauri, F. (2017), 
  Density functional perturbation theory for gated two-dimensional heterostructures:
  Theoretical developments and application to flexural phonons in graphene.
  Physical Review B, 96(7), 75448. https://doi.org/10.1103/PhysRevB.96.075448
 ----2D----2D----2D----2D----2D----2D----2D----2D----2D----2D----2D----2D

     The potential is recalculated from file :
     ./tmp/MoS2.save/charge-density

     Starting wfcs are   18 randomized atomic wfcs +  182 random wfcs

     Band Structure Calculation
     Davidson diagonalization with overlap

     Computing kpt #:     1  of     7
     total cpu time spent up to now is        9.6 secs

     Computing kpt #:     2  of     7
     total cpu time spent up to now is       17.2 secs

     Computing kpt #:     3  of     7
     total cpu time spent up to now is       25.6 secs

     Computing kpt #:     4  of     7
     total cpu time spent up to now is       33.6 secs

     Computing kpt #:     5  of     7
     total cpu time spent up to now is       42.0 secs

     Computing kpt #:     6  of     7
     total cpu time spent up to now is       50.3 secs

     Computing kpt #:     7  of     7
     total cpu time spent up to now is       58.2 secs

     ethr =  3.85E-09,  avg # of iterations = 34.4

     total cpu time spent up to now is       58.2 secs

     End of band structure calculation

          k = 0.0000 0.0000 0.0000 ( 14903 PWs)   bands (ev):

   -66.6931 -40.8960 -40.6372 -40.6372 -20.1785 -18.8130 -11.7262  -8.6012
    -8.6012  -7.7928  -7.4461  -7.4461  -6.0182  -3.0914  -3.0914  -2.8120
    -2.8120  -0.3417  -0.1572   0.4374   2.1827   2.3414   3.1230   4.8343
     4.8343   5.3418   5.9939   6.8631   6.8631   7.1576   9.4461  10.1009
    10.1791  10.1791  10.4918  10.4918  10.6170  12.3251  13.9506  14.1999
    15.2408  16.2506  17.2134  17.2134  18.8366  18.8366  18.8767  19.1604
    19.5361  19.5361  19.5850  19.6821  19.6940  19.6940  20.2280  20.2583
    20.5356  20.5356  21.4636  21.4636  21.6759  21.8699  21.8784  21.8784
    22.1981  22.1981  22.2237  22.6383  22.6383  22.8354  23.6854  24.1632
    24.3731  24.3731  24.3810  24.3810  24.6869  25.1108  25.4775  25.4775
    25.6151  25.6151  25.7170  26.6606  27.2638  27.2638  27.7868  27.7868
    27.8465  28.6195  28.7091  28.9404  28.9404  29.5850  29.5850  30.0393
    30.0730  30.8210  30.8210  31.0525  31.3974  31.3974  31.5241  31.5241
    31.6615  32.2398  33.1886  33.2758  33.7972  33.7972  33.8204  33.8204
    34.5503  34.6343  35.4804  35.4804  35.5205  35.5205  36.1174  36.6664
    36.6664  36.9714  37.3489  37.3573  37.3573  37.7747  38.1954  38.6011
    38.6011  38.7221  38.7221  38.8992  39.7582  39.7582  40.6116  40.7905
    40.7905  41.4910  41.4910  41.6279  41.7090  41.8049  41.8049  42.1218
    42.5890  42.6958  42.6959  44.7374  44.7430  44.8315  44.8315  45.4771
    45.6224  45.6224  46.3249  46.3249  46.6046  46.7978  47.2926  47.3157
    47.3157  48.4458  48.6842  49.0413  49.0413  50.0748  50.0748  50.7540
    50.7540  50.8717  51.5561  52.0586  52.0586  52.1718  52.4121  52.4121
    52.8559  52.8559  53.2026  53.8633  53.8633  54.1272  54.1293  54.8972
    55.2348  55.5365  55.6925  55.6925  56.7881  56.7881  57.5283  57.5611
    57.5611  57.9275  57.9275  58.6763  58.6906  58.9473  58.9497  58.9555

     occupation numbers 
     1.0000   1.0000   1.0000   1.0000   1.0000   1.0000   1.0000   1.0000
     1.0000   1.0000   1.0000   1.0000   1.0000   0.0000   0.0000   0.0000
     0.0000   0.0000   0.0000   0.0000   0.0000   0.0000   0.0000   0.0000
     0.0000   0.0000   0.0000   0.0000   0.0000   0.0000   0.0000   0.0000
     0.0000   0.0000   0.0000   0.0000   0.0000   0.0000   0.0000   0.0000
     0.0000   0.0000   0.0000   0.0000   0.0000   0.0000   0.0000   0.0000
     0.0000   0.0000   0.0000   0.0000   0.0000   0.0000   0.0000   0.0000
     0.0000   0.0000   0.0000   0.0000   0.0000   0.0000   0.0000   0.0000
     0.0000   0.0000   0.0000   0.0000   0.0000   0.0000   0.0000   0.0000
     0.0000   0.0000   0.0000   0.0000   0.0000   0.0000   0.0000   0.0000
     0.0000   0.0000   0.0000   0.0000   0.0000   0.0000   0.0000   0.0000
     0.0000   0.0000   0.0000   0.0000   0.0000   0.0000   0.0000   0.0000
     0.0000   0.0000   0.0000   0.0000   0.0000   0.0000   0.0000   0.0000
     0.0000   0.0000   0.0000   0.0000   0.0000   0.0000   0.0000   0.0000
     0.0000   0.0000   0.0000   0.0000   0.0000   0.0000   0.0000   0.0000
     0.0000   0.0000   0.0000   0.0000   0.0000   0.0000   0.0000   0.0000
     0.0000   0.0000   0.0000   0.0000   0.0000   0.0000   0.0000   0.0000
     0.0000   0.0000   0.0000   0.0000   0.0000   0.0000   0.0000   0.0000
     0.0000   0.0000   0.0000   0.0000   0.0000   0.0000   0.0000   0.0000
     0.0000   0.0000   0.0000   0.0000   0.0000   0.0000   0.0000   0.0000
     0.0000   0.0000   0.0000   0.0000   0.0000   0.0000   0.0000   0.0000
     0.0000   0.0000   0.0000   0.0000   0.0000   0.0000   0.0000   0.0000
     0.0000   0.0000   0.0000   0.0000   0.0000   0.0000   0.0000   0.0000
     0.0000   0.0000   0.0000   0.0000   0.0000   0.0000   0.0000   0.0000
     0.0000   0.0000   0.0000   0.0000   0.0000   0.0000   0.0000   0.0000

          k = 0.0000 0.1925 0.0000 ( 14865 PWs)   bands (ev):

   -66.6821 -40.8744 -40.7457 -40.6619 -19.7605 -18.6436 -11.2985  -9.3785
    -8.9530  -8.1695  -8.0201  -7.0290  -6.2879  -3.6036  -3.3013  -3.2232
    -2.4729   0.2798   0.3788   1.9445   2.7579   2.8136   3.9206   4.1371
     5.3895   5.9044   6.0751   6.4819   6.7061   7.1055   8.4692   9.2108
     9.2424  10.8341  10.9166  11.0713  13.2247  13.5171  13.7385  13.7822
    14.9406  15.6461  15.9012  16.2016  16.3054  16.3561  16.7578  16.8925
    17.2061  17.5896  18.0285  18.4372  18.7612  19.2069  19.2385  19.4224
    19.9485  20.0577  20.1131  20.4980  21.8135  21.9523  22.0462  22.3527
    23.0884  23.2886  23.2936  23.8169  23.8720  24.1862  24.3561  24.5278
    24.8664  25.2582  25.2714  25.3925  25.9741  26.0313  26.0517  26.0811
    26.6835  26.9242  27.2080  27.4957  27.6610  27.8119  27.9979  28.6186
    28.7030  28.7161  28.9959  29.2033  29.2948  29.5293  29.6070  30.0037
    30.3995  30.4578  31.0151  31.4108  31.5048  31.8002  31.8235  31.9343
    32.4467  33.0851  33.2658  33.3164  33.4399  33.7577  34.2373  34.7127
    34.7238  34.8835  34.9968  35.3901  35.8603  36.2523  36.6289  36.6718
    37.1002  37.1180  37.3140  37.5848  38.0551  38.7038  38.7840  39.1232
    39.2204  39.3775  39.9702  40.0630  40.8748  41.0220  41.0368  41.3549
    41.5102  41.6385  41.9724  42.0155  42.3501  42.9139  42.9575  43.1709
    43.7429  43.7529  43.9344  44.6572  44.6924  44.8057  45.2472  45.2649
    45.7651  45.9265  46.0314  46.4441  46.7209  46.9064  47.1979  47.2842
    47.9225  48.0093  48.5255  48.8224  49.0792  49.5279  50.1341  50.1719
    50.2119  50.4733  50.6796  50.7467  50.7913  51.1241  51.3536  51.4098
    51.9524  51.9920  52.4544  52.7737  52.9682  52.9873  53.0548  53.2498
    53.3180  54.0867  54.1214  54.5490  54.9958  55.0466  55.1024  55.2325
    55.4808  55.7359  56.0854  56.3030  56.5130  56.5171  56.6207  57.1458

     occupation numbers 
     1.0000   1.0000   1.0000   1.0000   1.0000   1.0000   1.0000   1.0000
     1.0000   1.0000   1.0000   1.0000   1.0000   0.0000   0.0000   0.0000
     0.0000   0.0000   0.0000   0.0000   0.0000   0.0000   0.0000   0.0000
     0.0000   0.0000   0.0000   0.0000   0.0000   0.0000   0.0000   0.0000
     0.0000   0.0000   0.0000   0.0000   0.0000   0.0000   0.0000   0.0000
     0.0000   0.0000   0.0000   0.0000   0.0000   0.0000   0.0000   0.0000
     0.0000   0.0000   0.0000   0.0000   0.0000   0.0000   0.0000   0.0000
     0.0000   0.0000   0.0000   0.0000   0.0000   0.0000   0.0000   0.0000
     0.0000   0.0000   0.0000   0.0000   0.0000   0.0000   0.0000   0.0000
     0.0000   0.0000   0.0000   0.0000   0.0000   0.0000   0.0000   0.0000
     0.0000   0.0000   0.0000   0.0000   0.0000   0.0000   0.0000   0.0000
     0.0000   0.0000   0.0000   0.0000   0.0000   0.0000   0.0000   0.0000
     0.0000   0.0000   0.0000   0.0000   0.0000   0.0000   0.0000   0.0000
     0.0000   0.0000   0.0000   0.0000   0.0000   0.0000   0.0000   0.0000
     0.0000   0.0000   0.0000   0.0000   0.0000   0.0000   0.0000   0.0000
     0.0000   0.0000   0.0000   0.0000   0.0000   0.0000   0.0000   0.0000
     0.0000   0.0000   0.0000   0.0000   0.0000   0.0000   0.0000   0.0000
     0.0000   0.0000   0.0000   0.0000   0.0000   0.0000   0.0000   0.0000
     0.0000   0.0000   0.0000   0.0000   0.0000   0.0000   0.0000   0.0000
     0.0000   0.0000   0.0000   0.0000   0.0000   0.0000   0.0000   0.0000
     0.0000   0.0000   0.0000   0.0000   0.0000   0.0000   0.0000   0.0000
     0.0000   0.0000   0.0000   0.0000   0.0000   0.0000   0.0000   0.0000
     0.0000   0.0000   0.0000   0.0000   0.0000   0.0000   0.0000   0.0000
     0.0000   0.0000   0.0000   0.0000   0.0000   0.0000   0.0000   0.0000
     0.0000   0.0000   0.0000   0.0000   0.0000   0.0000   0.0000   0.0000

          k = 0.0000 0.3849 0.0000 ( 14798 PWs)   bands (ev):

   -66.6600 -40.9574 -40.8310 -40.7107 -18.7843 -18.2557 -11.3465 -10.2614
    -9.9135  -8.8467  -7.6036  -7.2785  -6.9877  -3.6457  -3.5706  -2.4760
    -1.7207   1.4070   1.5892   1.9617   2.5620   3.2131   4.2115   4.5335
     5.6261   6.1888   6.4997   7.1956   7.7952   8.4184   9.0357   9.1413
     9.4067   9.4678   9.7512  11.4920  11.5906  11.7427  12.4522  12.7781
    13.8224  14.4933  14.6294  15.4003  15.4962  15.6132  15.8541  16.4205
    16.7320  16.8340  17.1055  17.8317  17.9921  18.5969  18.6282  18.8957
    19.3136  19.5557  19.7313  20.3348  20.9751  21.1170  21.2158  21.2376
    22.1243  22.2896  22.3799  22.5771  23.2394  23.2828  23.8066  24.6138
    24.9226  25.3962  25.4314  25.4372  26.2216  26.6860  26.8208  27.2507
    27.4635  27.4862  27.7622  28.4435  28.7317  28.8004  29.2805  29.3238
    29.4616  30.2199  30.7286  30.8620  31.0688  31.1112  31.1404  31.8235
    32.0501  32.0876  32.2532  32.5566  32.6926  32.8401  33.8537  33.8868
    33.9413  34.1989  34.4682  34.7339  35.3273  35.3443  35.6652  35.8324
    35.8483  36.2112  36.2159  36.8255  37.2801  37.3819  37.4243  37.6166
    37.8066  38.5884  38.8259  39.1814  39.1954  39.2268  39.5595  39.7829
    40.0835  40.2372  40.6903  41.0443  41.2288  41.3143  41.6744  41.7821
    41.9881  42.4294  42.6053  42.8978  42.9031  42.9772  43.0366  43.4716
    43.6613  43.8337  43.9068  44.0358  44.4723  44.6199  44.7470  45.0663
    45.6350  45.7356  46.0032  46.1321  46.1838  46.5170  46.7119  46.8718
    47.0370  47.4283  47.6227  47.7218  47.8861  48.2787  48.4038  49.2409
    49.2501  49.3178  49.3634  49.4763  49.6465  49.8502  50.0042  50.1193
    50.3683  50.9303  51.6595  51.6756  51.7666  52.0799  52.3461  53.1390
    53.1707  53.3979  53.5307  53.6860  53.7023  54.2754  54.3078  54.3314
    54.4393  54.6925  54.7734  55.3401  55.4541  55.4964  55.5930  56.0562

     occupation numbers 
     1.0000   1.0000   1.0000   1.0000   1.0000   1.0000   1.0000   1.0000
     1.0000   1.0000   1.0000   1.0000   1.0000   0.0000   0.0000   0.0000
     0.0000   0.0000   0.0000   0.0000   0.0000   0.0000   0.0000   0.0000
     0.0000   0.0000   0.0000   0.0000   0.0000   0.0000   0.0000   0.0000
     0.0000   0.0000   0.0000   0.0000   0.0000   0.0000   0.0000   0.0000
     0.0000   0.0000   0.0000   0.0000   0.0000   0.0000   0.0000   0.0000
     0.0000   0.0000   0.0000   0.0000   0.0000   0.0000   0.0000   0.0000
     0.0000   0.0000   0.0000   0.0000   0.0000   0.0000   0.0000   0.0000
     0.0000   0.0000   0.0000   0.0000   0.0000   0.0000   0.0000   0.0000
     0.0000   0.0000   0.0000   0.0000   0.0000   0.0000   0.0000   0.0000
     0.0000   0.0000   0.0000   0.0000   0.0000   0.0000   0.0000   0.0000
     0.0000   0.0000   0.0000   0.0000   0.0000   0.0000   0.0000   0.0000
     0.0000   0.0000   0.0000   0.0000   0.0000   0.0000   0.0000   0.0000
     0.0000   0.0000   0.0000   0.0000   0.0000   0.0000   0.0000   0.0000
     0.0000   0.0000   0.0000   0.0000   0.0000   0.0000   0.0000   0.0000
     0.0000   0.0000   0.0000   0.0000   0.0000   0.0000   0.0000   0.0000
     0.0000   0.0000   0.0000   0.0000   0.0000   0.0000   0.0000   0.0000
     0.0000   0.0000   0.0000   0.0000   0.0000   0.0000   0.0000   0.0000
     0.0000   0.0000   0.0000   0.0000   0.0000   0.0000   0.0000   0.0000
     0.0000   0.0000   0.0000   0.0000   0.0000   0.0000   0.0000   0.0000
     0.0000   0.0000   0.0000   0.0000   0.0000   0.0000   0.0000   0.0000
     0.0000   0.0000   0.0000   0.0000   0.0000   0.0000   0.0000   0.0000
     0.0000   0.0000   0.0000   0.0000   0.0000   0.0000   0.0000   0.0000
     0.0000   0.0000   0.0000   0.0000   0.0000   0.0000   0.0000   0.0000
     0.0000   0.0000   0.0000   0.0000   0.0000   0.0000   0.0000   0.0000

          k = 0.0000-0.5774 0.0000 ( 14754 PWs)   bands (ev):

   -66.6490 -41.0607 -40.8092 -40.7349 -18.1758 -18.0277 -11.9001 -10.8904
   -10.1232  -9.1755  -7.8662  -6.8690  -6.6203  -3.5904  -3.0775  -2.0251
    -1.5035   0.1960   1.8572   2.3340   3.1010   3.7794   4.5699   5.1579
     5.3297   5.6767   5.8122   7.0085   7.3949   7.9106   8.4188   9.6496
    10.1649  10.2385  10.9081  11.3378  11.6956  12.0760  12.4293  13.0097
    13.5119  13.6577  14.0279  14.1224  14.6764  15.1870  15.8469  16.2068
    16.2068  16.7232  16.7371  17.0611  17.6570  17.7083  18.3175  18.5445
    18.7971  18.8882  19.2134  19.3523  20.3121  20.7528  21.1361  21.2776
    21.6888  22.1660  22.1820  22.3572  22.9701  23.9625  24.0457  24.5973
    25.1411  25.3382  25.6462  25.8612  26.4103  26.8055  26.8459  26.9700
    27.0379  27.4474  28.1101  28.7699  29.0239  29.6916  30.0357  30.2074
    30.2304  30.7306  30.9649  31.5673  31.7597  31.8920  32.4906  32.7943
    32.8304  32.8855  33.6869  33.9208  33.9336  34.1549  34.6895  34.9025
    35.0791  35.1426  35.2884  35.5036  35.5723  35.7216  36.0144  36.2135
    36.2923  36.6515  36.9989  37.2191  37.3283  37.6134  37.6669  37.9102
    38.0875  38.2705  38.7742  38.7983  38.9077  39.0226  39.5475  39.7992
    39.9559  40.5927  41.0748  41.1088  41.2156  41.3951  41.8488  42.0097
    42.1395  42.1458  42.5389  42.5492  43.1369  43.2536  43.4449  43.6671
    43.8665  44.0030  44.2778  44.5469  44.6885  45.0275  45.3539  45.5356
    45.6322  45.8741  46.0215  46.3243  46.4272  46.7329  46.8628  46.9855
    47.1154  47.1625  47.5406  47.7309  48.0777  48.4401  48.5871  48.9315
    48.9635  49.2899  49.4138  49.4635  49.5668  49.7314  49.7458  49.8194
    50.8834  50.9090  51.0412  51.1215  51.3121  51.4913  51.6594  51.6616
    51.8376  52.2396  52.4185  52.8628  52.8935  52.9595  53.3105  53.4760
    53.9603  54.3218  54.6899  54.7361  54.8535  54.9281  54.9743  54.9930

     occupation numbers 
     1.0000   1.0000   1.0000   1.0000   1.0000   1.0000   1.0000   1.0000
     1.0000   1.0000   1.0000   1.0000   1.0000   0.0000   0.0000   0.0000
     0.0000   0.0000   0.0000   0.0000   0.0000   0.0000   0.0000   0.0000
     0.0000   0.0000   0.0000   0.0000   0.0000   0.0000   0.0000   0.0000
     0.0000   0.0000   0.0000   0.0000   0.0000   0.0000   0.0000   0.0000
     0.0000   0.0000   0.0000   0.0000   0.0000   0.0000   0.0000   0.0000
     0.0000   0.0000   0.0000   0.0000   0.0000   0.0000   0.0000   0.0000
     0.0000   0.0000   0.0000   0.0000   0.0000   0.0000   0.0000   0.0000
     0.0000   0.0000   0.0000   0.0000   0.0000   0.0000   0.0000   0.0000
     0.0000   0.0000   0.0000   0.0000   0.0000   0.0000   0.0000   0.0000
     0.0000   0.0000   0.0000   0.0000   0.0000   0.0000   0.0000   0.0000
     0.0000   0.0000   0.0000   0.0000   0.0000   0.0000   0.0000   0.0000
     0.0000   0.0000   0.0000   0.0000   0.0000   0.0000   0.0000   0.0000
     0.0000   0.0000   0.0000   0.0000   0.0000   0.0000   0.0000   0.0000
     0.0000   0.0000   0.0000   0.0000   0.0000   0.0000   0.0000   0.0000
     0.0000   0.0000   0.0000   0.0000   0.0000   0.0000   0.0000   0.0000
     0.0000   0.0000   0.0000   0.0000   0.0000   0.0000   0.0000   0.0000
     0.0000   0.0000   0.0000   0.0000   0.0000   0.0000   0.0000   0.0000
     0.0000   0.0000   0.0000   0.0000   0.0000   0.0000   0.0000   0.0000
     0.0000   0.0000   0.0000   0.0000   0.0000   0.0000   0.0000   0.0000
     0.0000   0.0000   0.0000   0.0000   0.0000   0.0000   0.0000   0.0000
     0.0000   0.0000   0.0000   0.0000   0.0000   0.0000   0.0000   0.0000
     0.0000   0.0000   0.0000   0.0000   0.0000   0.0000   0.0000   0.0000
     0.0000   0.0000   0.0000   0.0000   0.0000   0.0000   0.0000   0.0000
     0.0000   0.0000   0.0000   0.0000   0.0000   0.0000   0.0000   0.0000

          k = 0.1667 0.2887 0.0000 ( 14833 PWs)   bands (ev):

   -66.6656 -40.8851 -40.8419 -40.7191 -19.0545 -18.3564 -11.0232  -9.8221
    -9.7249  -9.2234  -7.9363  -6.9771  -6.7729  -4.0033  -3.3860  -3.2210
    -1.6323   1.2484   1.3669   3.0459   3.3688   3.4650   3.9425   4.2115
     5.6042   5.6725   5.9020   6.4766   6.6711   7.8860   8.6352   9.0021
     9.7020  10.9516  11.6143  11.7476  11.7693  11.9705  12.5202  12.6045
    13.8328  14.0215  14.2073  14.3421  15.0249  15.9789  16.2467  16.7826
    16.7893  17.2201  17.3856  17.7525  18.0732  18.8437  18.9669  19.1382
    20.0311  20.1628  20.5741  20.8657  21.5733  21.7215  21.8965  21.9501
    22.3155  22.5734  22.7312  23.1694  23.5292  23.5407  24.0576  24.0656
    24.5519  24.7867  25.4552  25.6118  25.8357  25.8804  26.1895  27.0325
    27.2895  27.3458  27.6729  27.7391  27.8740  28.5638  29.0629  29.0989
    29.3457  29.3842  29.8297  30.5455  30.7891  30.9869  31.2764  31.4169
    31.6806  31.9693  32.2445  32.4195  32.6183  32.8202  33.0019  33.1315
    33.5452  33.8821  33.9301  34.1102  34.2745  34.7303  35.1910  35.2905
    35.7365  36.0971  36.5084  36.7687  36.8330  36.8809  37.3435  37.6352
    38.0309  38.0899  38.3661  38.4580  38.5912  38.8832  39.2609  39.4655
    39.4809  39.8959  40.3182  40.8412  40.8822  41.3638  41.5269  41.6480
    41.8559  41.9228  42.4828  42.5381  42.6162  42.7183  43.0218  43.5282
    43.7792  43.7822  44.2172  44.3201  44.6040  45.1137  45.2106  45.2166
    45.9008  46.0175  46.0527  46.2782  46.3467  46.6564  46.9583  47.2203
    47.2519  47.7277  48.2103  48.5587  48.6249  48.7955  48.9102  49.1379
    49.4063  49.4783  49.6638  49.9076  50.4259  50.4327  50.7936  50.9752
    51.3070  51.9023  51.9067  52.1200  52.3796  52.6418  52.6840  52.7910
    52.9675  53.1631  53.3475  53.5803  53.9263  54.0436  54.4138  54.5141
    54.6269  54.9025  55.0402  55.5113  55.5422  55.7535  55.7888  56.4080

     occupation numbers 
     1.0000   1.0000   1.0000   1.0000   1.0000   1.0000   1.0000   1.0000
     1.0000   1.0000   1.0000   1.0000   1.0000   0.0000   0.0000   0.0000
     0.0000   0.0000   0.0000   0.0000   0.0000   0.0000   0.0000   0.0000
     0.0000   0.0000   0.0000   0.0000   0.0000   0.0000   0.0000   0.0000
     0.0000   0.0000   0.0000   0.0000   0.0000   0.0000   0.0000   0.0000
     0.0000   0.0000   0.0000   0.0000   0.0000   0.0000   0.0000   0.0000
     0.0000   0.0000   0.0000   0.0000   0.0000   0.0000   0.0000   0.0000
     0.0000   0.0000   0.0000   0.0000   0.0000   0.0000   0.0000   0.0000
     0.0000   0.0000   0.0000   0.0000   0.0000   0.0000   0.0000   0.0000
     0.0000   0.0000   0.0000   0.0000   0.0000   0.0000   0.0000   0.0000
     0.0000   0.0000   0.0000   0.0000   0.0000   0.0000   0.0000   0.0000
     0.0000   0.0000   0.0000   0.0000   0.0000   0.0000   0.0000   0.0000
     0.0000   0.0000   0.0000   0.0000   0.0000   0.0000   0.0000   0.0000
     0.0000   0.0000   0.0000   0.0000   0.0000   0.0000   0.0000   0.0000
     0.0000   0.0000   0.0000   0.0000   0.0000   0.0000   0.0000   0.0000
     0.0000   0.0000   0.0000   0.0000   0.0000   0.0000   0.0000   0.0000
     0.0000   0.0000   0.0000   0.0000   0.0000   0.0000   0.0000   0.0000
     0.0000   0.0000   0.0000   0.0000   0.0000   0.0000   0.0000   0.0000
     0.0000   0.0000   0.0000   0.0000   0.0000   0.0000   0.0000   0.0000
     0.0000   0.0000   0.0000   0.0000   0.0000   0.0000   0.0000   0.0000
     0.0000   0.0000   0.0000   0.0000   0.0000   0.0000   0.0000   0.0000
     0.0000   0.0000   0.0000   0.0000   0.0000   0.0000   0.0000   0.0000
     0.0000   0.0000   0.0000   0.0000   0.0000   0.0000   0.0000   0.0000
     0.0000   0.0000   0.0000   0.0000   0.0000   0.0000   0.0000   0.0000
     0.0000   0.0000   0.0000   0.0000   0.0000   0.0000   0.0000   0.0000

          k = 0.1667 0.4811 0.0000 ( 14782 PWs)   bands (ev):

   -66.6490 -41.0079 -40.8093 -40.7901 -18.1989 -18.0081 -11.4229 -10.9965
    -9.8514  -9.2407  -8.3533  -7.6805  -6.4613  -3.6548  -3.0355  -2.5588
    -1.3848   1.0916   2.7338   2.7406   3.6233   3.8053   4.6007   4.7754
     5.3158   6.0481   6.6742   7.3122   7.5040   7.9856   8.2497   8.6283
     9.4737   9.9205  10.2068  10.5883  10.6924  11.1750  12.1003  12.4830
    12.6875  13.4753  13.8284  14.0503  14.4211  15.1199  15.3137  15.8576
    16.3817  16.8798  17.0713  17.6568  17.7614  18.2713  19.1277  19.2070
    19.6902  19.8369  20.5137  20.6234  20.8882  21.1367  21.5844  22.1506
    22.4729  22.6843  22.9366  23.0179  23.2554  23.5966  23.9217  24.0916
    24.4738  25.5509  25.6968  26.1064  26.2393  26.5176  26.8014  27.0410
    27.2279  27.4369  27.8394  28.2859  28.5979  28.8340  29.2506  29.4473
    29.9258  29.9482  30.4990  30.7459  31.0208  31.3457  31.5764  31.9070
    32.2021  32.5577  32.7729  33.1888  33.6482  33.8329  33.9476  34.1356
    34.5861  34.7585  35.1800  35.4067  35.4704  35.8205  36.1928  36.2420
    36.7501  36.8526  37.0840  37.1063  37.5686  37.6816  38.1273  38.2952
    38.5862  38.8617  38.9083  39.2296  39.2925  39.6086  40.0547  40.0766
    40.2631  40.7710  40.8428  41.0338  41.1854  41.5350  41.7289  42.1761
    42.1863  42.4388  42.5464  42.9379  43.1520  43.3287  43.4563  43.6711
    44.0213  44.3479  44.4832  44.6999  44.8105  45.1781  45.2388  45.4262
    45.6575  45.8657  45.9443  46.1367  46.5803  46.7941  46.8150  46.9720
    47.3383  47.6499  48.2081  48.3222  48.5001  48.6247  49.0243  49.0365
    49.3772  49.4344  49.6518  49.9888  50.0802  50.3785  50.6616  50.8675
    51.0089  51.1075  51.6980  51.6993  51.9471  52.0642  52.3415  52.4366
    52.6247  52.8091  52.9432  53.1919  53.2851  53.7438  53.9359  54.1126
    54.2160  54.4977  54.6450  54.7698  55.0674  55.1230  55.3039  55.4197

     occupation numbers 
     1.0000   1.0000   1.0000   1.0000   1.0000   1.0000   1.0000   1.0000
     1.0000   1.0000   1.0000   1.0000   1.0000   0.0000   0.0000   0.0000
     0.0000   0.0000   0.0000   0.0000   0.0000   0.0000   0.0000   0.0000
     0.0000   0.0000   0.0000   0.0000   0.0000   0.0000   0.0000   0.0000
     0.0000   0.0000   0.0000   0.0000   0.0000   0.0000   0.0000   0.0000
     0.0000   0.0000   0.0000   0.0000   0.0000   0.0000   0.0000   0.0000
     0.0000   0.0000   0.0000   0.0000   0.0000   0.0000   0.0000   0.0000
     0.0000   0.0000   0.0000   0.0000   0.0000   0.0000   0.0000   0.0000
     0.0000   0.0000   0.0000   0.0000   0.0000   0.0000   0.0000   0.0000
     0.0000   0.0000   0.0000   0.0000   0.0000   0.0000   0.0000   0.0000
     0.0000   0.0000   0.0000   0.0000   0.0000   0.0000   0.0000   0.0000
     0.0000   0.0000   0.0000   0.0000   0.0000   0.0000   0.0000   0.0000
     0.0000   0.0000   0.0000   0.0000   0.0000   0.0000   0.0000   0.0000
     0.0000   0.0000   0.0000   0.0000   0.0000   0.0000   0.0000   0.0000
     0.0000   0.0000   0.0000   0.0000   0.0000   0.0000   0.0000   0.0000
     0.0000   0.0000   0.0000   0.0000   0.0000   0.0000   0.0000   0.0000
     0.0000   0.0000   0.0000   0.0000   0.0000   0.0000   0.0000   0.0000
     0.0000   0.0000   0.0000   0.0000   0.0000   0.0000   0.0000   0.0000
     0.0000   0.0000   0.0000   0.0000   0.0000   0.0000   0.0000   0.0000
     0.0000   0.0000   0.0000   0.0000   0.0000   0.0000   0.0000   0.0000
     0.0000   0.0000   0.0000   0.0000   0.0000   0.0000   0.0000   0.0000
     0.0000   0.0000   0.0000   0.0000   0.0000   0.0000   0.0000   0.0000
     0.0000   0.0000   0.0000   0.0000   0.0000   0.0000   0.0000   0.0000
     0.0000   0.0000   0.0000   0.0000   0.0000   0.0000   0.0000   0.0000
     0.0000   0.0000   0.0000   0.0000   0.0000   0.0000   0.0000   0.0000

          k = 0.3333 0.5774 0.0000 ( 14772 PWs)   bands (ev):

   -66.6434 -40.9567 -40.9074 -40.7984 -17.8857 -17.8520 -11.5453 -10.6799
   -10.1581  -9.5376  -8.9048  -8.1349  -5.9734  -4.1909  -2.9039  -2.2691
    -0.8689   1.3160   1.6215   3.6417   4.6096   5.3663   5.6963   5.9391
     6.0191   6.3757   6.9432   7.1904   7.4505   7.4614   7.4759   7.8193
     8.3876   9.1619   9.4288   9.6458   9.8567  10.5270  10.9047  11.6750
    12.5726  12.8038  13.4420  13.4422  13.7571  14.1577  14.5758  15.9784
    17.4329  17.6613  17.8418  17.9703  18.1013  18.9982  19.0134  19.5308
    19.6200  20.0567  20.9255  21.1620  21.3015  21.3993  21.9833  22.0405
    22.3871  22.6146  23.6354  23.6518  23.7729  23.8062  23.9134  25.1979
    25.3853  25.9135  26.4137  26.6091  26.6413  26.8869  27.1674  27.2398
    27.3657  27.7236  27.7847  27.9081  28.6629  28.9876  29.0477  29.0883
    29.3847  29.5750  30.2700  30.3998  30.4800  30.8242  31.0158  31.5892
    31.8833  32.1669  32.4979  32.5251  32.5311  33.0532  33.0877  33.1004
    33.5053  33.5719  34.5222  34.7932  35.0899  35.7550  35.7574  35.9536
    36.6706  36.6862  36.7535  36.8350  37.6662  37.9262  38.3451  38.5192
    38.6399  38.7170  38.9957  39.2328  39.3406  39.4270  39.5225  40.7550
    41.3544  41.7859  41.9973  42.2851  42.5224  42.5934  43.0381  43.0593
    43.4722  43.6958  43.7633  44.1788  44.7779  45.0412  45.3813  45.5617
    45.6060  45.6933  45.7690  45.9204  45.9217  46.0538  46.2978  46.7626
    46.8218  46.9705  46.9779  46.9829  47.1306  47.6192  47.6282  47.8091
    48.0603  48.1493  48.2619  48.3407  48.5174  48.5204  48.7118  48.8259
    49.0350  49.0823  49.5225  49.5963  49.8903  49.9788  50.0936  50.3316
    50.5532  50.6107  50.8475  51.1489  51.2016  51.2983  51.5063  51.7282
    51.7620  52.0205  52.0687  52.5255  52.5402  52.5589  52.9506  52.9923
    53.0299  53.2452  53.3801  53.9232  54.0860  54.3679  54.5279  54.6276

     occupation numbers 
     1.0000   1.0000   1.0000   1.0000   1.0000   1.0000   1.0000   1.0000
     1.0000   1.0000   1.0000   1.0000   1.0000   0.0000   0.0000   0.0000
     0.0000   0.0000   0.0000   0.0000   0.0000   0.0000   0.0000   0.0000
     0.0000   0.0000   0.0000   0.0000   0.0000   0.0000   0.0000   0.0000
     0.0000   0.0000   0.0000   0.0000   0.0000   0.0000   0.0000   0.0000
     0.0000   0.0000   0.0000   0.0000   0.0000   0.0000   0.0000   0.0000
     0.0000   0.0000   0.0000   0.0000   0.0000   0.0000   0.0000   0.0000
     0.0000   0.0000   0.0000   0.0000   0.0000   0.0000   0.0000   0.0000
     0.0000   0.0000   0.0000   0.0000   0.0000   0.0000   0.0000   0.0000
     0.0000   0.0000   0.0000   0.0000   0.0000   0.0000   0.0000   0.0000
     0.0000   0.0000   0.0000   0.0000   0.0000   0.0000   0.0000   0.0000
     0.0000   0.0000   0.0000   0.0000   0.0000   0.0000   0.0000   0.0000
     0.0000   0.0000   0.0000   0.0000   0.0000   0.0000   0.0000   0.0000
     0.0000   0.0000   0.0000   0.0000   0.0000   0.0000   0.0000   0.0000
     0.0000   0.0000   0.0000   0.0000   0.0000   0.0000   0.0000   0.0000
     0.0000   0.0000   0.0000   0.0000   0.0000   0.0000   0.0000   0.0000
     0.0000   0.0000   0.0000   0.0000   0.0000   0.0000   0.0000   0.0000
     0.0000   0.0000   0.0000   0.0000   0.0000   0.0000   0.0000   0.0000
     0.0000   0.0000   0.0000   0.0000   0.0000   0.0000   0.0000   0.0000
     0.0000   0.0000   0.0000   0.0000   0.0000   0.0000   0.0000   0.0000
     0.0000   0.0000   0.0000   0.0000   0.0000   0.0000   0.0000   0.0000
     0.0000   0.0000   0.0000   0.0000   0.0000   0.0000   0.0000   0.0000
     0.0000   0.0000   0.0000   0.0000   0.0000   0.0000   0.0000   0.0000
     0.0000   0.0000   0.0000   0.0000   0.0000   0.0000   0.0000   0.0000
     0.0000   0.0000   0.0000   0.0000   0.0000   0.0000   0.0000   0.0000

     highest occupied, lowest unoccupied level (ev):    -5.9734   -4.1909

     Writing all to output data dir ./tmp/MoS2.save/ :
     XML data file, pseudopotentials, collected wavefunctions

     init_run     :      1.05s CPU      1.31s WALL (       1 calls)
     electrons    :     55.34s CPU     56.66s WALL (       1 calls)

     Called by init_run:
     wfcinit      :      0.00s CPU      0.00s WALL (       1 calls)
     wfcinit:atom :      0.00s CPU      0.00s WALL (       7 calls)
     wfcinit:wfcr :      1.17s CPU      1.20s WALL (       7 calls)
     potinit      :      0.01s CPU      0.02s WALL (       1 calls)
     hinit0       :      0.68s CPU      0.68s WALL (       1 calls)

     Called by electrons:
     c_bands      :     55.34s CPU     56.63s WALL (       1 calls)
     v_of_rho     :      0.01s CPU      0.01s WALL (       1 calls)
     v_h          :      0.00s CPU      0.00s WALL (       1 calls)
     v_xc         :      0.01s CPU      0.01s WALL (       1 calls)

     Called by c_bands:
     init_us_2    :      0.00s CPU      0.00s WALL (       7 calls)
     cegterg      :     54.10s CPU     55.34s WALL (      14 calls)

     Called by sum_band:

     Called by *egterg:
     cdiaghg      :     34.25s CPU     34.67s WALL (     248 calls)
     cegterg:over :      4.02s CPU      4.33s WALL (     241 calls)
     cegterg:upda :      1.86s CPU      1.90s WALL (     241 calls)
     cegterg:last :      3.64s CPU      3.96s WALL (     117 calls)
     cdiaghg:chol :      0.80s CPU      0.87s WALL (     248 calls)
     cdiaghg:inve :      0.64s CPU      0.65s WALL (     248 calls)
     cdiaghg:para :      5.59s CPU      5.84s WALL (     496 calls)
     h_psi        :     10.96s CPU     11.10s WALL (     262 calls)
     g_psi        :      0.03s CPU      0.04s WALL (     241 calls)

     Called by h_psi:
     h_psi:calbec :      0.35s CPU      0.35s WALL (     262 calls)
     vloc_psi     :     10.34s CPU     10.47s WALL (     262 calls)
                                        0.00s GPU  (     262 calls)
     add_vuspsi   :      0.22s CPU      0.22s WALL (     262 calls)

     General routines
     calbec       :      0.35s CPU      0.35s WALL (     262 calls)
     fft          :      0.66s CPU      0.66s WALL (      11 calls)
     fftw         :      9.71s CPU      9.83s WALL (   49496 calls)
     davcio       :      0.01s CPU      0.02s WALL (      14 calls)

     Parallel routines

     PWSCF        :     58.26s CPU   1m 0.33s WALL


   This run was terminated on:   1:54:52  12Mar2026            

=------------------------------------------------------------------------------=
   JOB DONE.
=------------------------------------------------------------------------------=
