
     Program PWSCF v.7.5 starts on 19Mar2026 at 14:24:13 
        Git branch: HEAD
        Last git commit: 770a0b2d12928a67048e2f3da8d10d057e52179e
        Last git commit date: Tue Aug 19 09:57:12 2025 +0000
        Last git commit subject: Merge branch 'QE-7.5-RC' into 'master'

     This program is part of the open-source Quantum ESPRESSO suite
     for quantum simulation of materials; please cite
         "P. Giannozzi et al., J. Phys.:Condens. Matter 21 395502 (2009);
         "P. Giannozzi et al., J. Phys.:Condens. Matter 29 465901 (2017);
         "P. Giannozzi et al., J. Chem. Phys. 152 154105 (2020);
          URL http://www.quantum-espresso.org", 
     in publications or presentations arising from this work. More details at
     http://www.quantum-espresso.org/quote

     Parallel version (MPI), running on    64 processors

     MPI processes distributed on     4 nodes
     244402 MiB available memory on the printing compute node when the environment starts

     Waiting for input...
     Reading input from standard input

     Current dimensions of program PWSCF are:
     Max number of different atomic species (ntypx) = 10
     Max number of k-points (npk) =  40000
     Max angular momentum in pseudopotentials (lmaxx) =  4

     Atomic positions and unit cell read from directory:
     ./tmp/MoS2.save/


     K-points division:     npool     =       8
     R & G space division:  proc/nbgrp/npool/nimage =       8
     Subspace diagonalization in iterative solution of the eigenvalue problem:
     one sub-group per band group will be used
     custom distributed-memory algorithm (size of sub-group:  2*  2 procs)


     Parallelization info
     --------------------
     sticks:   dense  smooth     PW     G-vecs:    dense   smooth      PW
     Min          96      96     27                14778    14778    2303
     Max          97      97     28                14809    14809    2322
     Sum         769     769    223               118307   118307   18489

     Using Slab Decomposition



     bravais-lattice index     =            4
     lattice parameter (alat)  =       5.9477  a.u.
     unit-cell volume          =    1225.4506 (a.u.)^3
     number of atoms/cell      =            3
     number of atomic types    =            2
     number of electrons       =        26.00
     number of Kohn-Sham states=          200
     kinetic-energy cutoff     =      80.0000  Ry
     charge density cutoff     =     320.0000  Ry
     Exchange-correlation= PBESOL
                           (   1   4  10   8   0   0   0)

     celldm(1)=   5.947749  celldm(2)=   0.000000  celldm(3)=   6.725234
     celldm(4)=   0.000000  celldm(5)=   0.000000  celldm(6)=   0.000000

     crystal axes: (cart. coord. in units of alat)
               a(1) = (   1.000000   0.000000   0.000000 )  
               a(2) = (  -0.500000   0.866025   0.000000 )  
               a(3) = (   0.000000   0.000000   6.725234 )  

     reciprocal axes: (cart. coord. in units 2 pi/alat)
               b(1) = (  1.000000  0.577350 -0.000000 )  
               b(2) = (  0.000000  1.154701  0.000000 )  
               b(3) = (  0.000000 -0.000000  0.148694 )  


     PseudoPot. # 1 for Mo read from file:
     ../pseudo/Mo.pbesol.dojo.upf
     MD5 check sum: c40353276b9086539cda6b9e5a66907b
     Pseudo is Norm-conserving + core correction, Zval = 14.0
     Generated using ONCVPSP code by D. R. Hamann
     Using radial grid of 1640 points,  6 beta functions with: 
                l(1) =   0
                l(2) =   0
                l(3) =   1
                l(4) =   1
                l(5) =   2
                l(6) =   2

     PseudoPot. # 2 for S  read from file:
     ../pseudo/S.pbesol.dojo.upf
     MD5 check sum: 501737efeeef1fb1c631cda521d4e019
     Pseudo is Norm-conserving + core correction, Zval =  6.0
     Generated using ONCVPSP code by D. R. Hamann
     Using radial grid of 1146 points,  6 beta functions with: 
                l(1) =   0
                l(2) =   0
                l(3) =   1
                l(4) =   1
                l(5) =   2
                l(6) =   2

     atomic species   valence    mass     pseudopotential
     Mo               14.00    95.95000     Mo( 1.00)
     S                 6.00    32.06500     S ( 1.00)

     12 Sym. Ops. (no inversion) found


                                    s                        frac. trans.

      isym =  1     identity                                     

 cryst.   s( 1) = (     1          0          0      )
                  (     0          1          0      )
                  (     0          0          1      )

 cart.    s( 1) = (  1.0000000  0.0000000  0.0000000 )
                  (  0.0000000  1.0000000  0.0000000 )
                  (  0.0000000  0.0000000  1.0000000 )


      isym =  2     180 deg rotation - cart. axis [0,1,0]        

 cryst.   s( 2) = (    -1          0          0      )
                  (     1          1          0      )
                  (     0          0         -1      )

 cart.    s( 2) = ( -1.0000000  0.0000000  0.0000000 )
                  (  0.0000000  1.0000000  0.0000000 )
                  (  0.0000000  0.0000000 -1.0000000 )


      isym =  3     120 deg rotation - cryst. axis [0,0,1]       

 cryst.   s( 3) = (     0          1          0      )
                  (    -1         -1          0      )
                  (     0          0          1      )

 cart.    s( 3) = ( -0.5000000 -0.8660254  0.0000000 )
                  (  0.8660254 -0.5000000  0.0000000 )
                  (  0.0000000  0.0000000  1.0000000 )


      isym =  4     120 deg rotation - cryst. axis [0,0,-1]      

 cryst.   s( 4) = (    -1         -1          0      )
                  (     1          0          0      )
                  (     0          0          1      )

 cart.    s( 4) = ( -0.5000000  0.8660254  0.0000000 )
                  ( -0.8660254 -0.5000000  0.0000000 )
                  (  0.0000000  0.0000000  1.0000000 )


      isym =  5     180 deg rotation - cryst. axis [1,-1,0]      

 cryst.   s( 5) = (     0         -1          0      )
                  (    -1          0          0      )
                  (     0          0         -1      )

 cart.    s( 5) = (  0.5000000 -0.8660254  0.0000000 )
                  ( -0.8660254 -0.5000000  0.0000000 )
                  (  0.0000000  0.0000000 -1.0000000 )


      isym =  6     180 deg rotation - cryst. axis [2,1,0]       

 cryst.   s( 6) = (     1          1          0      )
                  (     0         -1          0      )
                  (     0          0         -1      )

 cart.    s( 6) = (  0.5000000  0.8660254  0.0000000 )
                  (  0.8660254 -0.5000000  0.0000000 )
                  (  0.0000000  0.0000000 -1.0000000 )


      isym =  7     inv. 180 deg rotation - cart. axis [0,0,1]   

 cryst.   s( 7) = (     1          0          0      )
                  (     0          1          0      )
                  (     0          0         -1      )

 cart.    s( 7) = (  1.0000000  0.0000000  0.0000000 )
                  (  0.0000000  1.0000000  0.0000000 )
                  (  0.0000000  0.0000000 -1.0000000 )


      isym =  8     inv. 180 deg rotation - cart. axis [1,0,0]   

 cryst.   s( 8) = (    -1          0          0      )
                  (     1          1          0      )
                  (     0          0          1      )

 cart.    s( 8) = ( -1.0000000  0.0000000  0.0000000 )
                  (  0.0000000  1.0000000  0.0000000 )
                  (  0.0000000  0.0000000  1.0000000 )


      isym =  9     inv.  60 deg rotation - cryst. axis [0,0,1]  

 cryst.   s( 9) = (    -1         -1          0      )
                  (     1          0          0      )
                  (     0          0         -1      )

 cart.    s( 9) = ( -0.5000000  0.8660254  0.0000000 )
                  ( -0.8660254 -0.5000000  0.0000000 )
                  (  0.0000000  0.0000000 -1.0000000 )


      isym = 10     inv.  60 deg rotation - cryst. axis [0,0,-1] 

 cryst.   s(10) = (     0          1          0      )
                  (    -1         -1          0      )
                  (     0          0         -1      )

 cart.    s(10) = ( -0.5000000 -0.8660254  0.0000000 )
                  (  0.8660254 -0.5000000  0.0000000 )
                  (  0.0000000  0.0000000 -1.0000000 )


      isym = 11     inv. 180 deg rotation - cryst. axis [0,1,0]  

 cryst.   s(11) = (     1          1          0      )
                  (     0         -1          0      )
                  (     0          0          1      )

 cart.    s(11) = (  0.5000000  0.8660254  0.0000000 )
                  (  0.8660254 -0.5000000  0.0000000 )
                  (  0.0000000  0.0000000  1.0000000 )


      isym = 12     inv. 180 deg rotation - cryst. axis [1,1,0]  

 cryst.   s(12) = (     0         -1          0      )
                  (    -1          0          0      )
                  (     0          0          1      )

 cart.    s(12) = (  0.5000000 -0.8660254  0.0000000 )
                  ( -0.8660254 -0.5000000  0.0000000 )
                  (  0.0000000  0.0000000  1.0000000 )


     point group D_3h (-62m)
     there are  6 classes
     the character table:

       E     2C3   3C2   s_h   2S3   3s_v 
A'_1   1.00  1.00  1.00  1.00  1.00  1.00
A'_2   1.00  1.00 -1.00  1.00  1.00 -1.00
E'     2.00 -1.00  0.00  2.00 -1.00  0.00
A''1   1.00  1.00  1.00 -1.00 -1.00 -1.00
A''2   1.00  1.00 -1.00 -1.00 -1.00  1.00
E''    2.00 -1.00  0.00 -2.00  1.00  0.00

     the symmetry operations in each class and the name of the first element:

     E        1
          identity                                               
     2C3      3    4
          120 deg rotation - cryst. axis [0,0,1]                 
     3C2      2    6    5
          180 deg rotation - cart. axis [0,1,0]                  
     s_h      7
          inv. 180 deg rotation - cart. axis [0,0,1]             
     2S3      9   10
          inv.  60 deg rotation - cryst. axis [0,0,1]            
     3s_v     8   11   12
          inv. 180 deg rotation - cart. axis [1,0,0]             

   Cartesian axes

     site n.     atom                  positions (alat units)
         1        Mo     tau(   1) = (   0.0000000   0.5773502   0.0000000  )
         2        S      tau(   2) = (   0.5000000   0.2886751   0.4945031  )
         3        S      tau(   3) = (   0.5000000   0.2886751  -0.4945031  )

     Fixed atoms
     site n.  direction
         1    1   1   1
         2    0   0   1
         3    0   0   1

   Crystallographic axes

     site n.     atom                  positions (cryst. coord.)
         1        Mo     tau(   1) = (  0.3333333  0.6666666  0.0000000  )
         2        S      tau(   2) = (  0.6666667  0.3333333  0.0735295  )
         3        S      tau(   3) = (  0.6666667  0.3333333 -0.0735295  )

     number of k points=   121
                       cart. coord. in units 2pi/alat
        k(    1) = (   0.0000000   0.0000000   0.0743469), wk =   0.0165289
        k(    2) = (   0.0000000   0.0000000   0.0594775), wk =   0.0165289
        k(    3) = (   0.0000000   0.0000000   0.0446081), wk =   0.0165289
        k(    4) = (   0.0000000   0.0000000   0.0297387), wk =   0.0165289
        k(    5) = (   0.0000000   0.0000000   0.0148694), wk =   0.0165289
        k(    6) = (   0.0000000   0.0000000   0.0000000), wk =   0.0165289
        k(    7) = (   0.0000000   0.0000000  -0.0148694), wk =   0.0165289
        k(    8) = (   0.0000000   0.0000000  -0.0297387), wk =   0.0165289
        k(    9) = (   0.0000000   0.0000000  -0.0446081), wk =   0.0165289
        k(   10) = (   0.0000000   0.0000000  -0.0594775), wk =   0.0165289
        k(   11) = (   0.0000000   0.0000000  -0.0743469), wk =   0.0165289
        k(   12) = (   0.0000000   0.0000000  -0.0669122), wk =   0.0165289
        k(   13) = (   0.0000000   0.0000000  -0.0594775), wk =   0.0165289
        k(   14) = (   0.0000000   0.0000000  -0.0520428), wk =   0.0165289
        k(   15) = (   0.0000000   0.0000000  -0.0446081), wk =   0.0165289
        k(   16) = (   0.0000000   0.0000000  -0.0371734), wk =   0.0165289
        k(   17) = (   0.0000000   0.0000000  -0.0297387), wk =   0.0165289
        k(   18) = (   0.0000000   0.0000000  -0.0223041), wk =   0.0165289
        k(   19) = (   0.0000000   0.0000000  -0.0148694), wk =   0.0165289
        k(   20) = (   0.0000000   0.0000000  -0.0074347), wk =   0.0165289
        k(   21) = (   0.0000000   0.0000000   0.0000000), wk =   0.0165289
        k(   22) = (   0.0333333   0.0577350   0.0074347), wk =   0.0165289
        k(   23) = (   0.0666667   0.1154701   0.0148694), wk =   0.0165289
        k(   24) = (   0.1000000   0.1732051   0.0223041), wk =   0.0165289
        k(   25) = (   0.1333333   0.2309401   0.0297387), wk =   0.0165289
        k(   26) = (   0.1666667   0.2886751   0.0371734), wk =   0.0165289
        k(   27) = (   0.2000000   0.3464102   0.0446081), wk =   0.0165289
        k(   28) = (   0.2333333   0.4041452   0.0520428), wk =   0.0165289
        k(   29) = (   0.2666667   0.4618802   0.0594775), wk =   0.0165289
        k(   30) = (   0.3000000   0.5196152   0.0669122), wk =   0.0165289
        k(   31) = (   0.3333333   0.5773503   0.0743469), wk =   0.0165289
        k(   32) = (   0.2666667   0.4618802   0.0594775), wk =   0.0165289
        k(   33) = (   0.2000000   0.3464102   0.0446081), wk =   0.0165289
        k(   34) = (   0.1333333   0.2309401   0.0297387), wk =   0.0165289
        k(   35) = (   0.0666667   0.1154701   0.0148694), wk =   0.0165289
        k(   36) = (   0.0000000   0.0000000   0.0000000), wk =   0.0165289
        k(   37) = (  -0.0666667  -0.1154701  -0.0148694), wk =   0.0165289
        k(   38) = (  -0.1333333  -0.2309401  -0.0297387), wk =   0.0165289
        k(   39) = (  -0.2000000  -0.3464102  -0.0446081), wk =   0.0165289
        k(   40) = (  -0.2666667  -0.4618802  -0.0594775), wk =   0.0165289
        k(   41) = (  -0.3333333  -0.5773503  -0.0743469), wk =   0.0165289
        k(   42) = (  -0.2666667  -0.4618802  -0.0743469), wk =   0.0165289
        k(   43) = (  -0.2000000  -0.3464102  -0.0743469), wk =   0.0165289
        k(   44) = (  -0.1333333  -0.2309401  -0.0743469), wk =   0.0165289
        k(   45) = (  -0.0666667  -0.1154701  -0.0743469), wk =   0.0165289
        k(   46) = (   0.0000000   0.0000000  -0.0743469), wk =   0.0165289
        k(   47) = (   0.0666667   0.1154701  -0.0743469), wk =   0.0165289
        k(   48) = (   0.1333333   0.2309401  -0.0743469), wk =   0.0165289
        k(   49) = (   0.2000000   0.3464102  -0.0743469), wk =   0.0165289
        k(   50) = (   0.2666667   0.4618802  -0.0743469), wk =   0.0165289
        k(   51) = (   0.3333333   0.5773503  -0.0743469), wk =   0.0165289
        k(   52) = (   0.2666667   0.4618802  -0.0594775), wk =   0.0165289
        k(   53) = (   0.2000000   0.3464102  -0.0446081), wk =   0.0165289
        k(   54) = (   0.1333333   0.2309401  -0.0297387), wk =   0.0165289
        k(   55) = (   0.0666667   0.1154701  -0.0148694), wk =   0.0165289
        k(   56) = (   0.0000000   0.0000000   0.0000000), wk =   0.0165289
        k(   57) = (  -0.0666667  -0.1154701   0.0148694), wk =   0.0165289
        k(   58) = (  -0.1333333  -0.2309401   0.0297387), wk =   0.0165289
        k(   59) = (  -0.2000000  -0.3464102   0.0446081), wk =   0.0165289
        k(   60) = (  -0.2666667  -0.4618802   0.0594775), wk =   0.0165289
        k(   61) = (  -0.3333333  -0.5773503   0.0743469), wk =   0.0165289
        k(   62) = (  -0.2666667  -0.4618802   0.0669122), wk =   0.0165289
        k(   63) = (  -0.2000000  -0.3464102   0.0594775), wk =   0.0165289
        k(   64) = (  -0.1333333  -0.2309401   0.0520428), wk =   0.0165289
        k(   65) = (  -0.0666667  -0.1154701   0.0446081), wk =   0.0165289
        k(   66) = (   0.0000000   0.0000000   0.0371734), wk =   0.0165289
        k(   67) = (   0.0666667   0.1154701   0.0297387), wk =   0.0165289
        k(   68) = (   0.1333333   0.2309401   0.0223041), wk =   0.0165289
        k(   69) = (   0.2000000   0.3464102   0.0148694), wk =   0.0165289
        k(   70) = (   0.2666667   0.4618802   0.0074347), wk =   0.0165289
        k(   71) = (   0.3333333   0.5773503   0.0000000), wk =   0.0165289
        k(   72) = (   0.2666667   0.4618802   0.0000000), wk =   0.0165289
        k(   73) = (   0.2000000   0.3464102   0.0000000), wk =   0.0165289
        k(   74) = (   0.1333333   0.2309401   0.0000000), wk =   0.0165289
        k(   75) = (   0.0666667   0.1154701   0.0000000), wk =   0.0165289
        k(   76) = (   0.0000000   0.0000000   0.0000000), wk =   0.0165289
        k(   77) = (  -0.0666667  -0.1154701   0.0000000), wk =   0.0165289
        k(   78) = (  -0.1333333  -0.2309401   0.0000000), wk =   0.0165289
        k(   79) = (  -0.2000000  -0.3464102   0.0000000), wk =   0.0165289
        k(   80) = (  -0.2666667  -0.4618802   0.0000000), wk =   0.0165289
        k(   81) = (  -0.3333333  -0.5773503   0.0000000), wk =   0.0165289
        k(   82) = (  -0.2500000  -0.4907477   0.0074347), wk =   0.0165289
        k(   83) = (  -0.1666667  -0.4041452   0.0148694), wk =   0.0165289
        k(   84) = (  -0.0833333  -0.3175426   0.0223041), wk =   0.0165289
        k(   85) = (   0.0000000  -0.2309401   0.0297387), wk =   0.0165289
        k(   86) = (   0.0833333  -0.1443376   0.0371734), wk =   0.0165289
        k(   87) = (   0.1666667  -0.0577350   0.0446081), wk =   0.0165289
        k(   88) = (   0.2500000   0.0288675   0.0520428), wk =   0.0165289
        k(   89) = (   0.3333333   0.1154701   0.0594775), wk =   0.0165289
        k(   90) = (   0.4166667   0.2020726   0.0669122), wk =   0.0165289
        k(   91) = (   0.5000000   0.2886751   0.0743469), wk =   0.0165289
        k(   92) = (   0.4000000   0.2309401   0.0594775), wk =   0.0165289
        k(   93) = (   0.3000000   0.1732051   0.0446081), wk =   0.0165289
        k(   94) = (   0.2000000   0.1154701   0.0297387), wk =   0.0165289
        k(   95) = (   0.1000000   0.0577350   0.0148694), wk =   0.0165289
        k(   96) = (   0.0000000   0.0000000   0.0000000), wk =   0.0165289
        k(   97) = (  -0.1000000  -0.0577350  -0.0148694), wk =   0.0165289
        k(   98) = (  -0.2000000  -0.1154701  -0.0297387), wk =   0.0165289
        k(   99) = (  -0.3000000  -0.1732051  -0.0446081), wk =   0.0165289
        k(  100) = (  -0.4000000  -0.2309401  -0.0594775), wk =   0.0165289
        k(  101) = (  -0.5000000  -0.2886751  -0.0743469), wk =   0.0165289
        k(  102) = (  -0.4000000  -0.2309401  -0.0669122), wk =   0.0165289
        k(  103) = (  -0.3000000  -0.1732051  -0.0594775), wk =   0.0165289
        k(  104) = (  -0.2000000  -0.1154701  -0.0520428), wk =   0.0165289
        k(  105) = (  -0.1000000  -0.0577350  -0.0446081), wk =   0.0165289
        k(  106) = (   0.0000000   0.0000000  -0.0371734), wk =   0.0165289
        k(  107) = (   0.1000000   0.0577350  -0.0297387), wk =   0.0165289
        k(  108) = (   0.2000000   0.1154701  -0.0223041), wk =   0.0165289
        k(  109) = (   0.3000000   0.1732051  -0.0148694), wk =   0.0165289
        k(  110) = (   0.4000000   0.2309401  -0.0074347), wk =   0.0165289
        k(  111) = (   0.5000000   0.2886751   0.0000000), wk =   0.0165289
        k(  112) = (   0.4000000   0.2309401   0.0000000), wk =   0.0165289
        k(  113) = (   0.3000000   0.1732051   0.0000000), wk =   0.0165289
        k(  114) = (   0.2000000   0.1154701   0.0000000), wk =   0.0165289
        k(  115) = (   0.1000000   0.0577350   0.0000000), wk =   0.0165289
        k(  116) = (   0.0000000   0.0000000   0.0000000), wk =   0.0165289
        k(  117) = (  -0.1000000  -0.0577350   0.0000000), wk =   0.0165289
        k(  118) = (  -0.2000000  -0.1154701   0.0000000), wk =   0.0165289
        k(  119) = (  -0.3000000  -0.1732051   0.0000000), wk =   0.0165289
        k(  120) = (  -0.4000000  -0.2309401   0.0000000), wk =   0.0165289
        k(  121) = (  -0.5000000  -0.2886751   0.0000000), wk =   0.0165289

                       cryst. coord.
        k(    1) = (   0.0000000   0.0000000   0.5000000), wk =   0.0165289
        k(    2) = (   0.0000000   0.0000000   0.4000000), wk =   0.0165289
        k(    3) = (   0.0000000   0.0000000   0.3000000), wk =   0.0165289
        k(    4) = (   0.0000000   0.0000000   0.2000000), wk =   0.0165289
        k(    5) = (   0.0000000   0.0000000   0.1000000), wk =   0.0165289
        k(    6) = (   0.0000000   0.0000000   0.0000000), wk =   0.0165289
        k(    7) = (   0.0000000   0.0000000  -0.1000000), wk =   0.0165289
        k(    8) = (   0.0000000   0.0000000  -0.2000000), wk =   0.0165289
        k(    9) = (   0.0000000   0.0000000  -0.3000000), wk =   0.0165289
        k(   10) = (   0.0000000   0.0000000  -0.4000000), wk =   0.0165289
        k(   11) = (   0.0000000   0.0000000  -0.5000000), wk =   0.0165289
        k(   12) = (   0.0000000   0.0000000  -0.4500000), wk =   0.0165289
        k(   13) = (   0.0000000   0.0000000  -0.4000000), wk =   0.0165289
        k(   14) = (   0.0000000   0.0000000  -0.3500000), wk =   0.0165289
        k(   15) = (   0.0000000   0.0000000  -0.3000000), wk =   0.0165289
        k(   16) = (   0.0000000   0.0000000  -0.2500000), wk =   0.0165289
        k(   17) = (   0.0000000   0.0000000  -0.2000000), wk =   0.0165289
        k(   18) = (   0.0000000   0.0000000  -0.1500000), wk =   0.0165289
        k(   19) = (   0.0000000   0.0000000  -0.1000000), wk =   0.0165289
        k(   20) = (   0.0000000   0.0000000  -0.0500000), wk =   0.0165289
        k(   21) = (   0.0000000   0.0000000   0.0000000), wk =   0.0165289
        k(   22) = (   0.0333333   0.0333333   0.0500000), wk =   0.0165289
        k(   23) = (   0.0666667   0.0666667   0.1000000), wk =   0.0165289
        k(   24) = (   0.1000000   0.1000000   0.1500000), wk =   0.0165289
        k(   25) = (   0.1333333   0.1333333   0.2000000), wk =   0.0165289
        k(   26) = (   0.1666667   0.1666667   0.2500000), wk =   0.0165289
        k(   27) = (   0.2000000   0.2000000   0.3000000), wk =   0.0165289
        k(   28) = (   0.2333333   0.2333333   0.3500000), wk =   0.0165289
        k(   29) = (   0.2666667   0.2666667   0.4000000), wk =   0.0165289
        k(   30) = (   0.3000000   0.3000000   0.4500000), wk =   0.0165289
        k(   31) = (   0.3333333   0.3333333   0.5000000), wk =   0.0165289
        k(   32) = (   0.2666667   0.2666667   0.4000000), wk =   0.0165289
        k(   33) = (   0.2000000   0.2000000   0.3000000), wk =   0.0165289
        k(   34) = (   0.1333333   0.1333333   0.2000000), wk =   0.0165289
        k(   35) = (   0.0666667   0.0666667   0.1000000), wk =   0.0165289
        k(   36) = (   0.0000000   0.0000000   0.0000000), wk =   0.0165289
        k(   37) = (  -0.0666667  -0.0666667  -0.1000000), wk =   0.0165289
        k(   38) = (  -0.1333333  -0.1333333  -0.2000000), wk =   0.0165289
        k(   39) = (  -0.2000000  -0.2000000  -0.3000000), wk =   0.0165289
        k(   40) = (  -0.2666667  -0.2666667  -0.4000000), wk =   0.0165289
        k(   41) = (  -0.3333333  -0.3333333  -0.5000000), wk =   0.0165289
        k(   42) = (  -0.2666667  -0.2666667  -0.5000000), wk =   0.0165289
        k(   43) = (  -0.2000000  -0.2000000  -0.5000000), wk =   0.0165289
        k(   44) = (  -0.1333333  -0.1333333  -0.5000000), wk =   0.0165289
        k(   45) = (  -0.0666667  -0.0666667  -0.5000000), wk =   0.0165289
        k(   46) = (   0.0000000   0.0000000  -0.5000000), wk =   0.0165289
        k(   47) = (   0.0666667   0.0666667  -0.5000000), wk =   0.0165289
        k(   48) = (   0.1333333   0.1333333  -0.5000000), wk =   0.0165289
        k(   49) = (   0.2000000   0.2000000  -0.5000000), wk =   0.0165289
        k(   50) = (   0.2666667   0.2666667  -0.5000000), wk =   0.0165289
        k(   51) = (   0.3333333   0.3333333  -0.5000000), wk =   0.0165289
        k(   52) = (   0.2666667   0.2666667  -0.4000000), wk =   0.0165289
        k(   53) = (   0.2000000   0.2000000  -0.3000000), wk =   0.0165289
        k(   54) = (   0.1333333   0.1333333  -0.2000000), wk =   0.0165289
        k(   55) = (   0.0666667   0.0666667  -0.1000000), wk =   0.0165289
        k(   56) = (   0.0000000   0.0000000   0.0000000), wk =   0.0165289
        k(   57) = (  -0.0666667  -0.0666667   0.1000000), wk =   0.0165289
        k(   58) = (  -0.1333333  -0.1333333   0.2000000), wk =   0.0165289
        k(   59) = (  -0.2000000  -0.2000000   0.3000000), wk =   0.0165289
        k(   60) = (  -0.2666667  -0.2666667   0.4000000), wk =   0.0165289
        k(   61) = (  -0.3333333  -0.3333333   0.5000000), wk =   0.0165289
        k(   62) = (  -0.2666667  -0.2666667   0.4500000), wk =   0.0165289
        k(   63) = (  -0.2000000  -0.2000000   0.4000000), wk =   0.0165289
        k(   64) = (  -0.1333333  -0.1333333   0.3500000), wk =   0.0165289
        k(   65) = (  -0.0666667  -0.0666667   0.3000000), wk =   0.0165289
        k(   66) = (   0.0000000   0.0000000   0.2500000), wk =   0.0165289
        k(   67) = (   0.0666667   0.0666667   0.2000000), wk =   0.0165289
        k(   68) = (   0.1333333   0.1333333   0.1500000), wk =   0.0165289
        k(   69) = (   0.2000000   0.2000000   0.1000000), wk =   0.0165289
        k(   70) = (   0.2666667   0.2666667   0.0500000), wk =   0.0165289
        k(   71) = (   0.3333333   0.3333333   0.0000000), wk =   0.0165289
        k(   72) = (   0.2666667   0.2666667   0.0000000), wk =   0.0165289
        k(   73) = (   0.2000000   0.2000000   0.0000000), wk =   0.0165289
        k(   74) = (   0.1333333   0.1333333   0.0000000), wk =   0.0165289
        k(   75) = (   0.0666667   0.0666667   0.0000000), wk =   0.0165289
        k(   76) = (   0.0000000   0.0000000   0.0000000), wk =   0.0165289
        k(   77) = (  -0.0666667  -0.0666667   0.0000000), wk =   0.0165289
        k(   78) = (  -0.1333333  -0.1333333   0.0000000), wk =   0.0165289
        k(   79) = (  -0.2000000  -0.2000000   0.0000000), wk =   0.0165289
        k(   80) = (  -0.2666667  -0.2666667   0.0000000), wk =   0.0165289
        k(   81) = (  -0.3333333  -0.3333333   0.0000000), wk =   0.0165289
        k(   82) = (  -0.2500000  -0.3000000   0.0500000), wk =   0.0165289
        k(   83) = (  -0.1666667  -0.2666667   0.1000000), wk =   0.0165289
        k(   84) = (  -0.0833333  -0.2333333   0.1500000), wk =   0.0165289
        k(   85) = (   0.0000000  -0.2000000   0.2000000), wk =   0.0165289
        k(   86) = (   0.0833333  -0.1666667   0.2500000), wk =   0.0165289
        k(   87) = (   0.1666667  -0.1333333   0.3000000), wk =   0.0165289
        k(   88) = (   0.2500000  -0.1000000   0.3500000), wk =   0.0165289
        k(   89) = (   0.3333333  -0.0666667   0.4000000), wk =   0.0165289
        k(   90) = (   0.4166667  -0.0333333   0.4500000), wk =   0.0165289
        k(   91) = (   0.5000000  -0.0000000   0.5000000), wk =   0.0165289
        k(   92) = (   0.4000000   0.0000000   0.4000000), wk =   0.0165289
        k(   93) = (   0.3000000   0.0000000   0.3000000), wk =   0.0165289
        k(   94) = (   0.2000000   0.0000000   0.2000000), wk =   0.0165289
        k(   95) = (   0.1000000   0.0000000   0.1000000), wk =   0.0165289
        k(   96) = (   0.0000000   0.0000000   0.0000000), wk =   0.0165289
        k(   97) = (  -0.1000000   0.0000000  -0.1000000), wk =   0.0165289
        k(   98) = (  -0.2000000   0.0000000  -0.2000000), wk =   0.0165289
        k(   99) = (  -0.3000000   0.0000000  -0.3000000), wk =   0.0165289
        k(  100) = (  -0.4000000   0.0000000  -0.4000000), wk =   0.0165289
        k(  101) = (  -0.5000000   0.0000000  -0.5000000), wk =   0.0165289
        k(  102) = (  -0.4000000   0.0000000  -0.4500000), wk =   0.0165289
        k(  103) = (  -0.3000000   0.0000000  -0.4000000), wk =   0.0165289
        k(  104) = (  -0.2000000   0.0000000  -0.3500000), wk =   0.0165289
        k(  105) = (  -0.1000000   0.0000000  -0.3000000), wk =   0.0165289
        k(  106) = (   0.0000000   0.0000000  -0.2500000), wk =   0.0165289
        k(  107) = (   0.1000000   0.0000000  -0.2000000), wk =   0.0165289
        k(  108) = (   0.2000000   0.0000000  -0.1500000), wk =   0.0165289
        k(  109) = (   0.3000000   0.0000000  -0.1000000), wk =   0.0165289
        k(  110) = (   0.4000000   0.0000000  -0.0500000), wk =   0.0165289
        k(  111) = (   0.5000000   0.0000000   0.0000000), wk =   0.0165289
        k(  112) = (   0.4000000   0.0000000   0.0000000), wk =   0.0165289
        k(  113) = (   0.3000000   0.0000000   0.0000000), wk =   0.0165289
        k(  114) = (   0.2000000   0.0000000   0.0000000), wk =   0.0165289
        k(  115) = (   0.1000000   0.0000000   0.0000000), wk =   0.0165289
        k(  116) = (   0.0000000   0.0000000   0.0000000), wk =   0.0165289
        k(  117) = (  -0.1000000   0.0000000   0.0000000), wk =   0.0165289
        k(  118) = (  -0.2000000   0.0000000   0.0000000), wk =   0.0165289
        k(  119) = (  -0.3000000   0.0000000   0.0000000), wk =   0.0165289
        k(  120) = (  -0.4000000   0.0000000   0.0000000), wk =   0.0165289
        k(  121) = (  -0.5000000   0.0000000   0.0000000), wk =   0.0165289

     Dense  grid:   118307 G-vectors     FFT dimensions: (  36,  36, 240)

     Dynamical RAM for                 wfc:       5.65 MB

     Dynamical RAM for     wfc (w. buffer):       5.65 MB

     Dynamical RAM for           str. fact:       0.45 MB

     Dynamical RAM for           local pot:       0.00 MB

     Dynamical RAM for          nlocal pot:       1.52 MB

     Dynamical RAM for                qrad:       2.87 MB

     Dynamical RAM for          rho,v,vnew:       1.57 MB

     Dynamical RAM for           G-vectors:       0.96 MB

     Dynamical RAM for          h,s,v(r/c):       1.83 MB

     Dynamical RAM for          <psi|beta>:       0.16 MB

     Dynamical RAM for                 psi:      11.29 MB

     Dynamical RAM for                hpsi:      11.29 MB

     Dynamical RAM for      wfcinit/wfcrot:      12.21 MB

     Estimated static dynamical RAM per process >      15.18 MB

     Estimated max dynamical RAM per process >      39.76 MB

     Estimated total dynamical RAM >       2.48 GB
 ----2D----2D----2D----2D----2D----2D----2D----2D----2D----2D----2D----2D
  The code is running with the 2D cutoff
  Please refer to:
  Sohier, T., Calandra, M., & Mauri, F. (2017), 
  Density functional perturbation theory for gated two-dimensional heterostructures:
  Theoretical developments and application to flexural phonons in graphene.
  Physical Review B, 96(7), 75448. https://doi.org/10.1103/PhysRevB.96.075448
 ----2D----2D----2D----2D----2D----2D----2D----2D----2D----2D----2D----2D

     The potential is recalculated from file :
     ./tmp/MoS2.save/charge-density

     Starting wfcs are   18 randomized atomic wfcs +  182 random wfcs

     Band Structure Calculation
     Davidson diagonalization with overlap

     Computing kpt #:     1  of    16 on this pool
     total cpu time spent up to now is       24.8 secs

     Computing kpt #:     2  of    16 on this pool
     total cpu time spent up to now is       37.1 secs

     Computing kpt #:     3  of    16 on this pool
     total cpu time spent up to now is       48.7 secs

     Computing kpt #:     4  of    16 on this pool
     total cpu time spent up to now is       61.0 secs

     Computing kpt #:     5  of    16 on this pool
     total cpu time spent up to now is       73.4 secs

     Computing kpt #:     6  of    16 on this pool
     total cpu time spent up to now is       85.5 secs

     Computing kpt #:     7  of    16 on this pool
     total cpu time spent up to now is       97.3 secs

     Computing kpt #:     8  of    16 on this pool
     total cpu time spent up to now is      109.5 secs

     Computing kpt #:     9  of    16 on this pool
     total cpu time spent up to now is      121.1 secs

     Computing kpt #:    10  of    16 on this pool
     total cpu time spent up to now is      134.3 secs

     Computing kpt #:    11  of    16 on this pool
     total cpu time spent up to now is      145.9 secs

     Computing kpt #:    12  of    16 on this pool
     total cpu time spent up to now is      158.3 secs

     Computing kpt #:    13  of    16 on this pool
     total cpu time spent up to now is      170.7 secs

     Computing kpt #:    14  of    16 on this pool
     total cpu time spent up to now is      182.5 secs

     Computing kpt #:    15  of    16 on this pool
     total cpu time spent up to now is      195.2 secs

     Computing kpt #:    16  of    16 on this pool
     total cpu time spent up to now is      206.1 secs

     ethr =  3.85E-09,  avg # of iterations = 36.8

     total cpu time spent up to now is      206.1 secs

     End of band structure calculation

          k = 0.0000 0.0000 0.0743 ( 14910 PWs)   bands (ev):

   -66.6931 -40.8960 -40.6372 -40.6372 -20.1785 -18.8130 -11.7262  -8.6012
    -8.6012  -7.7928  -7.4461  -7.4461  -6.0182  -3.0914  -3.0914  -2.8120
    -2.8120  -0.3416  -0.1572   0.4374   2.1832   2.3408   3.1230   4.8343
     4.8343   5.3445   5.9893   6.8631   6.8631   7.1594   9.4661  10.0896
    10.1791  10.1791  10.4918  10.4918  10.5800  12.3934  13.9371  14.4005
    14.6777  17.2134  17.2134  17.2726  17.6334  18.8366  18.8366  19.3117
    19.4469  19.5361  19.5361  19.6940  19.6940  19.9063  20.2387  20.5356
    20.5356  20.8918  21.4634  21.4634  21.6622  21.8787  21.8787  22.0790
    22.1977  22.1977  22.3665  22.4327  22.6387  22.6387  22.8964  24.3236
    24.3743  24.3743  24.3794  24.3794  24.6841  25.2364  25.4800  25.4800
    25.6119  25.6119  26.3398  26.6539  27.2704  27.2704  27.7790  27.7790
    27.9936  28.1038  28.7185  28.9539  28.9539  29.2405  29.5616  29.5616
    30.8408  30.8408  30.8820  30.9249  31.3379  31.3379  31.5981  31.5981
    31.6615  32.5222  32.9135  33.5768  33.5768  33.9823  34.0601  34.0709
    34.0709  34.7734  34.9955  34.9955  36.1311  36.3806  36.3806  36.3961
    36.4113  36.4113  36.8327  37.2997  37.2997  37.6674  37.9045  37.9045
    38.7686  39.2847  39.2847  39.9925  40.1394  40.1394  40.5924  40.5924
    40.6319  41.2177  41.3029  41.3401  41.3401  41.5754  41.5754  42.1218
    42.7490  42.9949  42.9949  43.9483  44.5792  44.5792  44.9002  45.4771
    45.7939  45.7939  46.6088  46.6754  46.6754  46.8330  46.8330  47.0529
    48.0146  48.6747  49.0400  49.4350  49.4350  50.1774  50.2268  50.2268
    50.4487  50.4487  50.5840  51.6726  51.6726  51.9064  51.9064  52.0319
    53.0341  53.3984  53.3984  53.8547  54.7432  54.7432  54.8972  55.5978
    55.5978  55.5987  55.8485  56.3778  56.5580  56.5580  56.6014  57.0048
    57.0048  57.3721  57.4341  57.4341  58.5969  58.6763  58.9858  58.9858

     occupation numbers 
     1.0000   1.0000   1.0000   1.0000   1.0000   1.0000   1.0000   1.0000
     1.0000   1.0000   1.0000   1.0000   1.0000   0.0000   0.0000   0.0000
     0.0000   0.0000   0.0000   0.0000   0.0000   0.0000   0.0000   0.0000
     0.0000   0.0000   0.0000   0.0000   0.0000   0.0000   0.0000   0.0000
     0.0000   0.0000   0.0000   0.0000   0.0000   0.0000   0.0000   0.0000
     0.0000   0.0000   0.0000   0.0000   0.0000   0.0000   0.0000   0.0000
     0.0000   0.0000   0.0000   0.0000   0.0000   0.0000   0.0000   0.0000
     0.0000   0.0000   0.0000   0.0000   0.0000   0.0000   0.0000   0.0000
     0.0000   0.0000   0.0000   0.0000   0.0000   0.0000   0.0000   0.0000
     0.0000   0.0000   0.0000   0.0000   0.0000   0.0000   0.0000   0.0000
     0.0000   0.0000   0.0000   0.0000   0.0000   0.0000   0.0000   0.0000
     0.0000   0.0000   0.0000   0.0000   0.0000   0.0000   0.0000   0.0000
     0.0000   0.0000   0.0000   0.0000   0.0000   0.0000   0.0000   0.0000
     0.0000   0.0000   0.0000   0.0000   0.0000   0.0000   0.0000   0.0000
     0.0000   0.0000   0.0000   0.0000   0.0000   0.0000   0.0000   0.0000
     0.0000   0.0000   0.0000   0.0000   0.0000   0.0000   0.0000   0.0000
     0.0000   0.0000   0.0000   0.0000   0.0000   0.0000   0.0000   0.0000
     0.0000   0.0000   0.0000   0.0000   0.0000   0.0000   0.0000   0.0000
     0.0000   0.0000   0.0000   0.0000   0.0000   0.0000   0.0000   0.0000
     0.0000   0.0000   0.0000   0.0000   0.0000   0.0000   0.0000   0.0000
     0.0000   0.0000   0.0000   0.0000   0.0000   0.0000   0.0000   0.0000
     0.0000   0.0000   0.0000   0.0000   0.0000   0.0000   0.0000   0.0000
     0.0000   0.0000   0.0000   0.0000   0.0000   0.0000   0.0000   0.0000
     0.0000   0.0000   0.0000   0.0000   0.0000   0.0000   0.0000   0.0000
     0.0000   0.0000   0.0000   0.0000   0.0000   0.0000   0.0000   0.0000

          k = 0.0000 0.0000 0.0595 ( 14940 PWs)   bands (ev):

   -66.6931 -40.8960 -40.6372 -40.6372 -20.1785 -18.8130 -11.7262  -8.6012
    -8.6012  -7.7928  -7.4461  -7.4461  -6.0182  -3.0914  -3.0914  -2.8120
    -2.8120  -0.3416  -0.1572   0.4374   2.1831   2.3409   3.1230   4.8343
     4.8343   5.3442   5.9897   6.8631   6.8631   7.1593   9.4641  10.0908
    10.1791  10.1791  10.4918  10.4918  10.5835  12.3868  13.9382  14.3623
    14.7415  17.0826  17.2134  17.2134  17.8334  18.8366  18.8366  19.3072
    19.4508  19.5361  19.5361  19.6940  19.6940  19.9016  20.2387  20.5356
    20.5356  20.8276  21.4634  21.4634  21.6640  21.8787  21.8787  22.0357
    22.1978  22.1978  22.2740  22.6177  22.6387  22.6387  22.9157  24.3185
    24.3742  24.3742  24.3796  24.3796  24.6843  25.2311  25.4798  25.4798
    25.6122  25.6122  26.2704  26.6547  27.2698  27.2698  27.7797  27.7797
    27.9384  28.2102  28.7195  28.9525  28.9525  29.2704  29.5639  29.5639
    30.8199  30.8388  30.8389  30.9595  31.3422  31.3422  31.5924  31.5924
    31.6615  32.4966  32.9332  33.5878  33.5878  33.8033  34.0567  34.0567
    34.2204  34.7734  35.0191  35.0191  36.0646  36.2333  36.2333  36.5091
    36.5314  36.5314  36.8790  37.2797  37.2797  37.6547  37.9739  37.9739
    38.6852  39.2197  39.2197  40.0518  40.1775  40.1775  40.5423  40.5432
    40.5432  40.9040  41.3574  41.3574  41.6171  41.6171  41.7262  42.1218
    42.7160  42.9585  42.9585  43.8704  44.6122  44.6122  45.0468  45.4771
    45.7552  45.7552  46.4861  46.6949  46.6949  46.8359  46.8359  47.1247
    47.9075  48.5298  49.2268  49.4642  49.4642  50.0146  50.0146  50.0533
    50.6420  50.6420  50.7546  51.6535  51.6535  51.9699  51.9699  52.1160
    52.9808  53.3415  53.3415  53.8917  54.6684  54.6684  54.8972  55.2504
    55.6194  55.6194  55.9514  56.4180  56.5758  56.5758  56.7597  57.0051
    57.0051  57.2094  57.5462  57.5462  58.6763  58.8109  58.9508  58.9508

     occupation numbers 
     1.0000   1.0000   1.0000   1.0000   1.0000   1.0000   1.0000   1.0000
     1.0000   1.0000   1.0000   1.0000   1.0000   0.0000   0.0000   0.0000
     0.0000   0.0000   0.0000   0.0000   0.0000   0.0000   0.0000   0.0000
     0.0000   0.0000   0.0000   0.0000   0.0000   0.0000   0.0000   0.0000
     0.0000   0.0000   0.0000   0.0000   0.0000   0.0000   0.0000   0.0000
     0.0000   0.0000   0.0000   0.0000   0.0000   0.0000   0.0000   0.0000
     0.0000   0.0000   0.0000   0.0000   0.0000   0.0000   0.0000   0.0000
     0.0000   0.0000   0.0000   0.0000   0.0000   0.0000   0.0000   0.0000
     0.0000   0.0000   0.0000   0.0000   0.0000   0.0000   0.0000   0.0000
     0.0000   0.0000   0.0000   0.0000   0.0000   0.0000   0.0000   0.0000
     0.0000   0.0000   0.0000   0.0000   0.0000   0.0000   0.0000   0.0000
     0.0000   0.0000   0.0000   0.0000   0.0000   0.0000   0.0000   0.0000
     0.0000   0.0000   0.0000   0.0000   0.0000   0.0000   0.0000   0.0000
     0.0000   0.0000   0.0000   0.0000   0.0000   0.0000   0.0000   0.0000
     0.0000   0.0000   0.0000   0.0000   0.0000   0.0000   0.0000   0.0000
     0.0000   0.0000   0.0000   0.0000   0.0000   0.0000   0.0000   0.0000
     0.0000   0.0000   0.0000   0.0000   0.0000   0.0000   0.0000   0.0000
     0.0000   0.0000   0.0000   0.0000   0.0000   0.0000   0.0000   0.0000
     0.0000   0.0000   0.0000   0.0000   0.0000   0.0000   0.0000   0.0000
     0.0000   0.0000   0.0000   0.0000   0.0000   0.0000   0.0000   0.0000
     0.0000   0.0000   0.0000   0.0000   0.0000   0.0000   0.0000   0.0000
     0.0000   0.0000   0.0000   0.0000   0.0000   0.0000   0.0000   0.0000
     0.0000   0.0000   0.0000   0.0000   0.0000   0.0000   0.0000   0.0000
     0.0000   0.0000   0.0000   0.0000   0.0000   0.0000   0.0000   0.0000
     0.0000   0.0000   0.0000   0.0000   0.0000   0.0000   0.0000   0.0000

          k = 0.0000 0.0000 0.0446 ( 14946 PWs)   bands (ev):

   -66.6931 -40.8960 -40.6372 -40.6372 -20.1785 -18.8130 -11.7262  -8.6012
    -8.6012  -7.7928  -7.4461  -7.4461  -6.0182  -3.0914  -3.0914  -2.8120
    -2.8120  -0.3417  -0.1572   0.4374   2.1830   2.3410   3.1230   4.8343
     4.8343   5.3436   5.9909   6.8631   6.8631   7.1588   9.4590  10.0937
    10.1791  10.1791  10.4918  10.4918  10.5926  12.3697  13.9413  14.2978
    14.8788  16.7993  17.2134  17.2134  18.1469  18.8366  18.8366  19.2925
    19.4635  19.5361  19.5361  19.6940  19.6940  19.8847  20.2385  20.5356
    20.5356  20.6612  21.4635  21.4635  21.6679  21.8786  21.8786  21.9591
    22.1979  22.1979  22.2385  22.6386  22.6386  22.7835  23.0447  24.3013
    24.3739  24.3739  24.3800  24.3800  24.6849  25.2134  25.4791  25.4791
    25.6130  25.6130  26.1003  26.6565  27.2681  27.2681  27.7817  27.7817
    27.8900  28.3730  28.7211  28.9491  28.9491  29.3686  29.5697  29.5697
    30.7005  30.8339  30.8339  30.9958  31.3544  31.3544  31.5767  31.5767
    31.6615  32.4279  32.9871  33.6066  33.6197  33.6197  34.0168  34.0168
    34.3696  34.7575  35.0878  35.0878  36.0194  36.0555  36.0555  36.6221
    36.6221  36.6621  37.0444  37.2619  37.2619  37.6235  38.1393  38.1393
    38.4918  39.0727  39.0727  39.9855  40.1613  40.1613  40.3520  40.5272
    40.5272  40.9257  41.3879  41.3879  41.7109  41.7109  42.0956  42.1218
    42.6276  42.8699  42.8699  43.7937  44.6911  44.6911  45.3577  45.4771
    45.6770  45.6770  46.2163  46.6306  46.6306  46.9446  46.9446  47.2223
    47.6921  48.3595  49.2790  49.4733  49.4733  49.8184  49.8184  50.1309
    50.8194  50.8194  50.9841  51.6757  51.6757  52.1077  52.1077  52.3479
    52.8688  53.1948  53.1948  53.9096  54.4714  54.4714  54.8972  54.9300
    55.6430  55.6568  55.6568  56.4379  56.6449  56.6449  56.9487  57.0421
    57.0421  57.3268  57.7982  57.7982  58.6763  58.8554  58.8554  59.0616

     occupation numbers 
     1.0000   1.0000   1.0000   1.0000   1.0000   1.0000   1.0000   1.0000
     1.0000   1.0000   1.0000   1.0000   1.0000   0.0000   0.0000   0.0000
     0.0000   0.0000   0.0000   0.0000   0.0000   0.0000   0.0000   0.0000
     0.0000   0.0000   0.0000   0.0000   0.0000   0.0000   0.0000   0.0000
     0.0000   0.0000   0.0000   0.0000   0.0000   0.0000   0.0000   0.0000
     0.0000   0.0000   0.0000   0.0000   0.0000   0.0000   0.0000   0.0000
     0.0000   0.0000   0.0000   0.0000   0.0000   0.0000   0.0000   0.0000
     0.0000   0.0000   0.0000   0.0000   0.0000   0.0000   0.0000   0.0000
     0.0000   0.0000   0.0000   0.0000   0.0000   0.0000   0.0000   0.0000
     0.0000   0.0000   0.0000   0.0000   0.0000   0.0000   0.0000   0.0000
     0.0000   0.0000   0.0000   0.0000   0.0000   0.0000   0.0000   0.0000
     0.0000   0.0000   0.0000   0.0000   0.0000   0.0000   0.0000   0.0000
     0.0000   0.0000   0.0000   0.0000   0.0000   0.0000   0.0000   0.0000
     0.0000   0.0000   0.0000   0.0000   0.0000   0.0000   0.0000   0.0000
     0.0000   0.0000   0.0000   0.0000   0.0000   0.0000   0.0000   0.0000
     0.0000   0.0000   0.0000   0.0000   0.0000   0.0000   0.0000   0.0000
     0.0000   0.0000   0.0000   0.0000   0.0000   0.0000   0.0000   0.0000
     0.0000   0.0000   0.0000   0.0000   0.0000   0.0000   0.0000   0.0000
     0.0000   0.0000   0.0000   0.0000   0.0000   0.0000   0.0000   0.0000
     0.0000   0.0000   0.0000   0.0000   0.0000   0.0000   0.0000   0.0000
     0.0000   0.0000   0.0000   0.0000   0.0000   0.0000   0.0000   0.0000
     0.0000   0.0000   0.0000   0.0000   0.0000   0.0000   0.0000   0.0000
     0.0000   0.0000   0.0000   0.0000   0.0000   0.0000   0.0000   0.0000
     0.0000   0.0000   0.0000   0.0000   0.0000   0.0000   0.0000   0.0000
     0.0000   0.0000   0.0000   0.0000   0.0000   0.0000   0.0000   0.0000

          k = 0.0000 0.0000 0.0297 ( 14904 PWs)   bands (ev):

   -66.6931 -40.8960 -40.6372 -40.6372 -20.1785 -18.8130 -11.7262  -8.6012
    -8.6012  -7.7928  -7.4461  -7.4461  -6.0182  -3.0914  -3.0914  -2.8120
    -2.8120  -0.3417  -0.1572   0.4374   2.1829   2.3412   3.1230   4.8343
     4.8343   5.3428   5.9923   6.8631   6.8631   7.1582   9.4528  10.0972
    10.1791  10.1791  10.4918  10.4918  10.6040  12.3486  13.9454  14.2446
    15.0380  16.5360  17.2134  17.2134  18.4614  18.8366  18.8366  19.2630
    19.4886  19.5361  19.5361  19.6940  19.6940  19.8436  20.2381  20.4588
    20.5356  20.5356  21.4636  21.4636  21.6720  21.8785  21.8785  21.9058
    22.1980  22.1980  22.2282  22.6384  22.6384  22.8239  23.3105  24.2656
    24.3735  24.3735  24.3804  24.3804  24.6858  25.1795  25.4783  25.4783
    25.6140  25.6140  25.9079  26.6585  27.2661  27.2661  27.7841  27.7841
    27.8637  28.5080  28.7201  28.9450  28.9450  29.5461  29.5770  29.5770
    30.5309  30.8278  30.8278  31.0248  31.3718  31.3718  31.5547  31.5547
    31.6615  32.3403  33.0615  33.4481  33.6699  33.6699  33.9573  33.9573
    34.4712  34.7111  35.1957  35.1957  35.8690  35.8690  36.0469  36.6611
    36.6611  36.7837  37.2814  37.2871  37.2871  37.6082  38.2831  38.3372
    38.3372  38.9122  38.9123  39.5488  39.9989  39.9989  40.4685  40.6390
    40.6390  41.1071  41.4239  41.4239  41.7891  41.7891  42.1218  42.1773
    42.5751  42.7750  42.7750  43.9207  44.7716  44.7716  45.4771  45.5563
    45.6208  45.6208  46.0177  46.5003  46.5003  47.1132  47.1132  47.2208
    47.4889  48.2789  49.0727  49.2996  49.2996  49.8761  49.8761  50.4810
    50.8516  50.8516  51.1742  51.8026  51.8026  52.2701  52.2701  52.5038
    52.9017  53.0152  53.0152  53.7816  54.2123  54.2123  54.8958  54.8972
    55.1897  55.6805  55.6805  56.0834  56.7309  56.7309  57.1720  57.1720
    57.2233  57.8194  58.0331  58.0331  58.6763  58.7651  58.7651  58.9778

     occupation numbers 
     1.0000   1.0000   1.0000   1.0000   1.0000   1.0000   1.0000   1.0000
     1.0000   1.0000   1.0000   1.0000   1.0000   0.0000   0.0000   0.0000
     0.0000   0.0000   0.0000   0.0000   0.0000   0.0000   0.0000   0.0000
     0.0000   0.0000   0.0000   0.0000   0.0000   0.0000   0.0000   0.0000
     0.0000   0.0000   0.0000   0.0000   0.0000   0.0000   0.0000   0.0000
     0.0000   0.0000   0.0000   0.0000   0.0000   0.0000   0.0000   0.0000
     0.0000   0.0000   0.0000   0.0000   0.0000   0.0000   0.0000   0.0000
     0.0000   0.0000   0.0000   0.0000   0.0000   0.0000   0.0000   0.0000
     0.0000   0.0000   0.0000   0.0000   0.0000   0.0000   0.0000   0.0000
     0.0000   0.0000   0.0000   0.0000   0.0000   0.0000   0.0000   0.0000
     0.0000   0.0000   0.0000   0.0000   0.0000   0.0000   0.0000   0.0000
     0.0000   0.0000   0.0000   0.0000   0.0000   0.0000   0.0000   0.0000
     0.0000   0.0000   0.0000   0.0000   0.0000   0.0000   0.0000   0.0000
     0.0000   0.0000   0.0000   0.0000   0.0000   0.0000   0.0000   0.0000
     0.0000   0.0000   0.0000   0.0000   0.0000   0.0000   0.0000   0.0000
     0.0000   0.0000   0.0000   0.0000   0.0000   0.0000   0.0000   0.0000
     0.0000   0.0000   0.0000   0.0000   0.0000   0.0000   0.0000   0.0000
     0.0000   0.0000   0.0000   0.0000   0.0000   0.0000   0.0000   0.0000
     0.0000   0.0000   0.0000   0.0000   0.0000   0.0000   0.0000   0.0000
     0.0000   0.0000   0.0000   0.0000   0.0000   0.0000   0.0000   0.0000
     0.0000   0.0000   0.0000   0.0000   0.0000   0.0000   0.0000   0.0000
     0.0000   0.0000   0.0000   0.0000   0.0000   0.0000   0.0000   0.0000
     0.0000   0.0000   0.0000   0.0000   0.0000   0.0000   0.0000   0.0000
     0.0000   0.0000   0.0000   0.0000   0.0000   0.0000   0.0000   0.0000
     0.0000   0.0000   0.0000   0.0000   0.0000   0.0000   0.0000   0.0000

          k = 0.0000 0.0000 0.0149 ( 14916 PWs)   bands (ev):

   -66.6931 -40.8960 -40.6372 -40.6372 -20.1785 -18.8130 -11.7262  -8.6012
    -8.6012  -7.7928  -7.4461  -7.4461  -6.0182  -3.0914  -3.0914  -2.8120
    -2.8120  -0.3417  -0.1572   0.4374   2.1828   2.3413   3.1230   4.8343
     4.8343   5.3421   5.9935   6.8631   6.8631   7.1578   9.4479  10.0999
    10.1791  10.1791  10.4918  10.4918  10.6134  12.3316  13.9491  14.2112
    15.1791  16.3328  17.2134  17.2134  18.7371  18.8366  18.8366  19.2101
    19.5340  19.5361  19.5361  19.6940  19.6940  19.7608  20.2357  20.3047
    20.5356  20.5356  21.4636  21.4636  21.6749  21.8782  21.8785  21.8785
    22.1981  22.1981  22.2246  22.6383  22.6383  22.8333  23.5655  24.2066
    24.3732  24.3732  24.3808  24.3808  24.6865  25.1346  25.4777  25.4777
    25.6148  25.6148  25.7666  26.6600  27.2644  27.2644  27.7860  27.7861
    27.8505  28.5906  28.7142  28.9416  28.9416  29.5828  29.5828  29.7880
    30.3125  30.8229  30.8229  31.0450  31.3893  31.3893  31.5336  31.5336
    31.6615  32.2678  33.1392  33.3340  33.7342  33.7342  33.8860  33.8860
    34.5305  34.6577  35.3351  35.3351  35.6818  35.6818  36.0960  36.6674
    36.6674  36.9041  37.3343  37.3343  37.3705  37.7115  38.1664  38.5145
    38.5145  38.7832  38.7832  39.1193  39.8307  39.8307  40.5739  40.7483
    40.7483  41.3664  41.4667  41.4667  41.8112  41.8112  41.9665  42.1218
    42.5873  42.7141  42.7141  44.2743  44.8188  44.8188  45.2194  45.4771
    45.6133  45.6133  46.2990  46.3776  46.3776  47.0523  47.2574  47.2574
    47.3366  48.3453  48.8331  49.1151  49.1151  50.0097  50.0097  50.7756
    50.7939  50.7939  51.3892  51.9703  51.9703  52.3299  52.3924  52.3924
    52.8833  52.8833  53.1558  53.7499  53.9710  53.9710  54.6577  54.8972
    55.0738  55.6901  55.6901  55.7420  56.7763  56.7763  57.3972  57.3972
    57.4385  58.0388  58.0388  58.3889  58.6763  58.7841  58.8428  58.8429

     occupation numbers 
     1.0000   1.0000   1.0000   1.0000   1.0000   1.0000   1.0000   1.0000
     1.0000   1.0000   1.0000   1.0000   1.0000   0.0000   0.0000   0.0000
     0.0000   0.0000   0.0000   0.0000   0.0000   0.0000   0.0000   0.0000
     0.0000   0.0000   0.0000   0.0000   0.0000   0.0000   0.0000   0.0000
     0.0000   0.0000   0.0000   0.0000   0.0000   0.0000   0.0000   0.0000
     0.0000   0.0000   0.0000   0.0000   0.0000   0.0000   0.0000   0.0000
     0.0000   0.0000   0.0000   0.0000   0.0000   0.0000   0.0000   0.0000
     0.0000   0.0000   0.0000   0.0000   0.0000   0.0000   0.0000   0.0000
     0.0000   0.0000   0.0000   0.0000   0.0000   0.0000   0.0000   0.0000
     0.0000   0.0000   0.0000   0.0000   0.0000   0.0000   0.0000   0.0000
     0.0000   0.0000   0.0000   0.0000   0.0000   0.0000   0.0000   0.0000
     0.0000   0.0000   0.0000   0.0000   0.0000   0.0000   0.0000   0.0000
     0.0000   0.0000   0.0000   0.0000   0.0000   0.0000   0.0000   0.0000
     0.0000   0.0000   0.0000   0.0000   0.0000   0.0000   0.0000   0.0000
     0.0000   0.0000   0.0000   0.0000   0.0000   0.0000   0.0000   0.0000
     0.0000   0.0000   0.0000   0.0000   0.0000   0.0000   0.0000   0.0000
     0.0000   0.0000   0.0000   0.0000   0.0000   0.0000   0.0000   0.0000
     0.0000   0.0000   0.0000   0.0000   0.0000   0.0000   0.0000   0.0000
     0.0000   0.0000   0.0000   0.0000   0.0000   0.0000   0.0000   0.0000
     0.0000   0.0000   0.0000   0.0000   0.0000   0.0000   0.0000   0.0000
     0.0000   0.0000   0.0000   0.0000   0.0000   0.0000   0.0000   0.0000
     0.0000   0.0000   0.0000   0.0000   0.0000   0.0000   0.0000   0.0000
     0.0000   0.0000   0.0000   0.0000   0.0000   0.0000   0.0000   0.0000
     0.0000   0.0000   0.0000   0.0000   0.0000   0.0000   0.0000   0.0000
     0.0000   0.0000   0.0000   0.0000   0.0000   0.0000   0.0000   0.0000

          k = 0.0000 0.0000 0.0000 ( 14903 PWs)   bands (ev):

   -66.6931 -40.8960 -40.6372 -40.6372 -20.1785 -18.8130 -11.7262  -8.6012
    -8.6012  -7.7928  -7.4461  -7.4461  -6.0182  -3.0914  -3.0914  -2.8120
    -2.8120  -0.3417  -0.1572   0.4374   2.1827   2.3414   3.1230   4.8343
     4.8343   5.3418   5.9939   6.8631   6.8631   7.1576   9.4461  10.1009
    10.1791  10.1791  10.4918  10.4918  10.6170  12.3251  13.9506  14.1999
    15.2408  16.2506  17.2134  17.2134  18.8366  18.8366  18.8767  19.1604
    19.5361  19.5361  19.5850  19.6821  19.6940  19.6940  20.2280  20.2583
    20.5356  20.5356  21.4636  21.4636  21.6759  21.8699  21.8784  21.8784
    22.1981  22.1981  22.2237  22.6383  22.6383  22.8354  23.6854  24.1632
    24.3731  24.3731  24.3810  24.3810  24.6869  25.1108  25.4775  25.4775
    25.6151  25.6151  25.7170  26.6606  27.2638  27.2638  27.7868  27.7868
    27.8465  28.6195  28.7091  28.9404  28.9404  29.5850  29.5850  30.0393
    30.0730  30.8210  30.8210  31.0525  31.3974  31.3974  31.5241  31.5241
    31.6615  32.2398  33.1886  33.2758  33.7972  33.7972  33.8204  33.8204
    34.5503  34.6343  35.4804  35.4804  35.5205  35.5205  36.1174  36.6664
    36.6664  36.9714  37.3489  37.3573  37.3573  37.7747  38.1954  38.6011
    38.6011  38.7221  38.7221  38.8992  39.7582  39.7582  40.6116  40.7905
    40.7905  41.4910  41.4910  41.6279  41.7090  41.8049  41.8049  42.1218
    42.5890  42.6958  42.6959  44.7374  44.7430  44.8315  44.8315  45.4771
    45.6224  45.6224  46.3249  46.3249  46.6046  46.7978  47.2926  47.3157
    47.3157  48.4458  48.6842  49.0413  49.0413  50.0748  50.0748  50.7540
    50.7540  50.8717  51.5561  52.0586  52.0586  52.1718  52.4121  52.4121
    52.8559  52.8559  53.2026  53.8633  53.8633  54.1272  54.1293  54.8972
    55.2348  55.5365  55.6925  55.6925  56.7881  56.7881  57.5283  57.5611
    57.5611  57.9275  57.9275  58.6763  58.6906  58.9473  58.9497  58.9555

     occupation numbers 
     1.0000   1.0000   1.0000   1.0000   1.0000   1.0000   1.0000   1.0000
     1.0000   1.0000   1.0000   1.0000   1.0000   0.0000   0.0000   0.0000
     0.0000   0.0000   0.0000   0.0000   0.0000   0.0000   0.0000   0.0000
     0.0000   0.0000   0.0000   0.0000   0.0000   0.0000   0.0000   0.0000
     0.0000   0.0000   0.0000   0.0000   0.0000   0.0000   0.0000   0.0000
     0.0000   0.0000   0.0000   0.0000   0.0000   0.0000   0.0000   0.0000
     0.0000   0.0000   0.0000   0.0000   0.0000   0.0000   0.0000   0.0000
     0.0000   0.0000   0.0000   0.0000   0.0000   0.0000   0.0000   0.0000
     0.0000   0.0000   0.0000   0.0000   0.0000   0.0000   0.0000   0.0000
     0.0000   0.0000   0.0000   0.0000   0.0000   0.0000   0.0000   0.0000
     0.0000   0.0000   0.0000   0.0000   0.0000   0.0000   0.0000   0.0000
     0.0000   0.0000   0.0000   0.0000   0.0000   0.0000   0.0000   0.0000
     0.0000   0.0000   0.0000   0.0000   0.0000   0.0000   0.0000   0.0000
     0.0000   0.0000   0.0000   0.0000   0.0000   0.0000   0.0000   0.0000
     0.0000   0.0000   0.0000   0.0000   0.0000   0.0000   0.0000   0.0000
     0.0000   0.0000   0.0000   0.0000   0.0000   0.0000   0.0000   0.0000
     0.0000   0.0000   0.0000   0.0000   0.0000   0.0000   0.0000   0.0000
     0.0000   0.0000   0.0000   0.0000   0.0000   0.0000   0.0000   0.0000
     0.0000   0.0000   0.0000   0.0000   0.0000   0.0000   0.0000   0.0000
     0.0000   0.0000   0.0000   0.0000   0.0000   0.0000   0.0000   0.0000
     0.0000   0.0000   0.0000   0.0000   0.0000   0.0000   0.0000   0.0000
     0.0000   0.0000   0.0000   0.0000   0.0000   0.0000   0.0000   0.0000
     0.0000   0.0000   0.0000   0.0000   0.0000   0.0000   0.0000   0.0000
     0.0000   0.0000   0.0000   0.0000   0.0000   0.0000   0.0000   0.0000
     0.0000   0.0000   0.0000   0.0000   0.0000   0.0000   0.0000   0.0000

          k = 0.0000 0.0000-0.0149 ( 14916 PWs)   bands (ev):

   -66.6931 -40.8960 -40.6372 -40.6372 -20.1785 -18.8130 -11.7262  -8.6012
    -8.6012  -7.7928  -7.4461  -7.4461  -6.0182  -3.0914  -3.0914  -2.8120
    -2.8120  -0.3417  -0.1572   0.4374   2.1828   2.3413   3.1230   4.8343
     4.8343   5.3421   5.9935   6.8631   6.8631   7.1578   9.4479  10.0999
    10.1791  10.1791  10.4918  10.4918  10.6134  12.3316  13.9491  14.2112
    15.1791  16.3328  17.2134  17.2134  18.7371  18.8366  18.8366  19.2101
    19.5340  19.5361  19.5361  19.6940  19.6940  19.7608  20.2357  20.3047
    20.5356  20.5356  21.4636  21.4636  21.6749  21.8782  21.8785  21.8785
    22.1981  22.1981  22.2246  22.6383  22.6383  22.8333  23.5655  24.2066
    24.3732  24.3732  24.3808  24.3808  24.6865  25.1346  25.4777  25.4777
    25.6148  25.6148  25.7666  26.6600  27.2644  27.2644  27.7860  27.7861
    27.8505  28.5906  28.7142  28.9416  28.9416  29.5828  29.5828  29.7880
    30.3125  30.8229  30.8229  31.0450  31.3893  31.3893  31.5336  31.5336
    31.6615  32.2678  33.1392  33.3340  33.7342  33.7342  33.8860  33.8860
    34.5305  34.6577  35.3351  35.3351  35.6818  35.6818  36.0960  36.6674
    36.6674  36.9041  37.3343  37.3343  37.3705  37.7115  38.1664  38.5145
    38.5145  38.7832  38.7832  39.1193  39.8307  39.8307  40.5739  40.7483
    40.7483  41.3664  41.4667  41.4667  41.8112  41.8112  41.9665  42.1218
    42.5873  42.7141  42.7141  44.2743  44.8188  44.8188  45.2194  45.4771
    45.6133  45.6133  46.2990  46.3776  46.3776  47.0523  47.2574  47.2574
    47.3366  48.3453  48.8331  49.1151  49.1151  50.0097  50.0097  50.7756
    50.7939  50.7939  51.3892  51.9703  51.9703  52.3299  52.3924  52.3924
    52.8833  52.8833  53.1558  53.7499  53.9710  53.9710  54.6577  54.8972
    55.0738  55.6901  55.6901  55.7420  56.7763  56.7763  57.3972  57.3972
    57.4385  58.0388  58.0388  58.3889  58.6763  58.7841  58.8428  58.8429

     occupation numbers 
     1.0000   1.0000   1.0000   1.0000   1.0000   1.0000   1.0000   1.0000
     1.0000   1.0000   1.0000   1.0000   1.0000   0.0000   0.0000   0.0000
     0.0000   0.0000   0.0000   0.0000   0.0000   0.0000   0.0000   0.0000
     0.0000   0.0000   0.0000   0.0000   0.0000   0.0000   0.0000   0.0000
     0.0000   0.0000   0.0000   0.0000   0.0000   0.0000   0.0000   0.0000
     0.0000   0.0000   0.0000   0.0000   0.0000   0.0000   0.0000   0.0000
     0.0000   0.0000   0.0000   0.0000   0.0000   0.0000   0.0000   0.0000
     0.0000   0.0000   0.0000   0.0000   0.0000   0.0000   0.0000   0.0000
     0.0000   0.0000   0.0000   0.0000   0.0000   0.0000   0.0000   0.0000
     0.0000   0.0000   0.0000   0.0000   0.0000   0.0000   0.0000   0.0000
     0.0000   0.0000   0.0000   0.0000   0.0000   0.0000   0.0000   0.0000
     0.0000   0.0000   0.0000   0.0000   0.0000   0.0000   0.0000   0.0000
     0.0000   0.0000   0.0000   0.0000   0.0000   0.0000   0.0000   0.0000
     0.0000   0.0000   0.0000   0.0000   0.0000   0.0000   0.0000   0.0000
     0.0000   0.0000   0.0000   0.0000   0.0000   0.0000   0.0000   0.0000
     0.0000   0.0000   0.0000   0.0000   0.0000   0.0000   0.0000   0.0000
     0.0000   0.0000   0.0000   0.0000   0.0000   0.0000   0.0000   0.0000
     0.0000   0.0000   0.0000   0.0000   0.0000   0.0000   0.0000   0.0000
     0.0000   0.0000   0.0000   0.0000   0.0000   0.0000   0.0000   0.0000
     0.0000   0.0000   0.0000   0.0000   0.0000   0.0000   0.0000   0.0000
     0.0000   0.0000   0.0000   0.0000   0.0000   0.0000   0.0000   0.0000
     0.0000   0.0000   0.0000   0.0000   0.0000   0.0000   0.0000   0.0000
     0.0000   0.0000   0.0000   0.0000   0.0000   0.0000   0.0000   0.0000
     0.0000   0.0000   0.0000   0.0000   0.0000   0.0000   0.0000   0.0000
     0.0000   0.0000   0.0000   0.0000   0.0000   0.0000   0.0000   0.0000

          k = 0.0000 0.0000-0.0297 ( 14904 PWs)   bands (ev):

   -66.6931 -40.8960 -40.6372 -40.6372 -20.1785 -18.8130 -11.7262  -8.6012
    -8.6012  -7.7928  -7.4461  -7.4461  -6.0182  -3.0914  -3.0914  -2.8120
    -2.8120  -0.3417  -0.1572   0.4374   2.1829   2.3412   3.1230   4.8343
     4.8343   5.3428   5.9923   6.8631   6.8631   7.1582   9.4528  10.0972
    10.1791  10.1791  10.4918  10.4918  10.6040  12.3486  13.9454  14.2446
    15.0380  16.5360  17.2134  17.2134  18.4614  18.8366  18.8366  19.2630
    19.4886  19.5361  19.5361  19.6940  19.6940  19.8436  20.2381  20.4588
    20.5356  20.5356  21.4636  21.4636  21.6720  21.8785  21.8785  21.9058
    22.1980  22.1980  22.2282  22.6384  22.6384  22.8239  23.3105  24.2656
    24.3735  24.3735  24.3804  24.3804  24.6858  25.1795  25.4783  25.4783
    25.6140  25.6140  25.9079  26.6585  27.2661  27.2661  27.7841  27.7841
    27.8637  28.5080  28.7201  28.9450  28.9450  29.5461  29.5770  29.5770
    30.5309  30.8278  30.8278  31.0248  31.3718  31.3718  31.5547  31.5547
    31.6615  32.3403  33.0615  33.4481  33.6699  33.6699  33.9573  33.9573
    34.4712  34.7111  35.1957  35.1957  35.8690  35.8690  36.0469  36.6611
    36.6611  36.7837  37.2814  37.2871  37.2871  37.6082  38.2831  38.3372
    38.3372  38.9122  38.9123  39.5488  39.9989  39.9989  40.4685  40.6390
    40.6390  41.1071  41.4239  41.4239  41.7891  41.7891  42.1218  42.1773
    42.5751  42.7750  42.7750  43.9207  44.7716  44.7716  45.4771  45.5563
    45.6208  45.6208  46.0177  46.5003  46.5003  47.1132  47.1132  47.2208
    47.4889  48.2789  49.0727  49.2996  49.2996  49.8761  49.8761  50.4810
    50.8516  50.8516  51.1742  51.8026  51.8026  52.2701  52.2701  52.5038
    52.9017  53.0152  53.0152  53.7816  54.2123  54.2123  54.8958  54.8972
    55.1897  55.6805  55.6805  56.0834  56.7309  56.7309  57.1720  57.1720
    57.2233  57.8194  58.0331  58.0331  58.6763  58.7651  58.7651  58.9778

     occupation numbers 
     1.0000   1.0000   1.0000   1.0000   1.0000   1.0000   1.0000   1.0000
     1.0000   1.0000   1.0000   1.0000   1.0000   0.0000   0.0000   0.0000
     0.0000   0.0000   0.0000   0.0000   0.0000   0.0000   0.0000   0.0000
     0.0000   0.0000   0.0000   0.0000   0.0000   0.0000   0.0000   0.0000
     0.0000   0.0000   0.0000   0.0000   0.0000   0.0000   0.0000   0.0000
     0.0000   0.0000   0.0000   0.0000   0.0000   0.0000   0.0000   0.0000
     0.0000   0.0000   0.0000   0.0000   0.0000   0.0000   0.0000   0.0000
     0.0000   0.0000   0.0000   0.0000   0.0000   0.0000   0.0000   0.0000
     0.0000   0.0000   0.0000   0.0000   0.0000   0.0000   0.0000   0.0000
     0.0000   0.0000   0.0000   0.0000   0.0000   0.0000   0.0000   0.0000
     0.0000   0.0000   0.0000   0.0000   0.0000   0.0000   0.0000   0.0000
     0.0000   0.0000   0.0000   0.0000   0.0000   0.0000   0.0000   0.0000
     0.0000   0.0000   0.0000   0.0000   0.0000   0.0000   0.0000   0.0000
     0.0000   0.0000   0.0000   0.0000   0.0000   0.0000   0.0000   0.0000
     0.0000   0.0000   0.0000   0.0000   0.0000   0.0000   0.0000   0.0000
     0.0000   0.0000   0.0000   0.0000   0.0000   0.0000   0.0000   0.0000
     0.0000   0.0000   0.0000   0.0000   0.0000   0.0000   0.0000   0.0000
     0.0000   0.0000   0.0000   0.0000   0.0000   0.0000   0.0000   0.0000
     0.0000   0.0000   0.0000   0.0000   0.0000   0.0000   0.0000   0.0000
     0.0000   0.0000   0.0000   0.0000   0.0000   0.0000   0.0000   0.0000
     0.0000   0.0000   0.0000   0.0000   0.0000   0.0000   0.0000   0.0000
     0.0000   0.0000   0.0000   0.0000   0.0000   0.0000   0.0000   0.0000
     0.0000   0.0000   0.0000   0.0000   0.0000   0.0000   0.0000   0.0000
     0.0000   0.0000   0.0000   0.0000   0.0000   0.0000   0.0000   0.0000
     0.0000   0.0000   0.0000   0.0000   0.0000   0.0000   0.0000   0.0000

          k = 0.0000 0.0000-0.0446 ( 14946 PWs)   bands (ev):

   -66.6931 -40.8960 -40.6372 -40.6372 -20.1785 -18.8130 -11.7262  -8.6012
    -8.6012  -7.7928  -7.4461  -7.4461  -6.0182  -3.0914  -3.0914  -2.8120
    -2.8120  -0.3417  -0.1572   0.4374   2.1830   2.3410   3.1230   4.8343
     4.8343   5.3436   5.9909   6.8631   6.8631   7.1588   9.4590  10.0937
    10.1791  10.1791  10.4918  10.4918  10.5926  12.3697  13.9413  14.2978
    14.8788  16.7993  17.2134  17.2134  18.1469  18.8366  18.8366  19.2925
    19.4635  19.5361  19.5361  19.6940  19.6940  19.8847  20.2385  20.5356
    20.5356  20.6612  21.4635  21.4635  21.6679  21.8786  21.8786  21.9591
    22.1979  22.1979  22.2385  22.6386  22.6386  22.7835  23.0447  24.3013
    24.3739  24.3739  24.3800  24.3800  24.6849  25.2134  25.4791  25.4791
    25.6130  25.6130  26.1003  26.6565  27.2681  27.2681  27.7817  27.7817
    27.8900  28.3730  28.7211  28.9491  28.9491  29.3686  29.5697  29.5697
    30.7005  30.8339  30.8339  30.9958  31.3544  31.3544  31.5767  31.5767
    31.6615  32.4279  32.9871  33.6066  33.6197  33.6197  34.0168  34.0168
    34.3696  34.7575  35.0878  35.0878  36.0194  36.0555  36.0555  36.6221
    36.6221  36.6621  37.0444  37.2619  37.2619  37.6235  38.1393  38.1393
    38.4918  39.0727  39.0727  39.9855  40.1613  40.1613  40.3520  40.5272
    40.5272  40.9257  41.3879  41.3879  41.7109  41.7109  42.0956  42.1218
    42.6276  42.8699  42.8699  43.7937  44.6911  44.6911  45.3577  45.4771
    45.6770  45.6770  46.2163  46.6306  46.6306  46.9446  46.9446  47.2223
    47.6921  48.3595  49.2790  49.4733  49.4733  49.8184  49.8184  50.1309
    50.8194  50.8194  50.9841  51.6757  51.6757  52.1077  52.1077  52.3479
    52.8688  53.1948  53.1948  53.9096  54.4714  54.4714  54.8972  54.9300
    55.6430  55.6568  55.6568  56.4379  56.6449  56.6449  56.9487  57.0421
    57.0421  57.3268  57.7982  57.7982  58.6763  58.8554  58.8554  59.0616

     occupation numbers 
     1.0000   1.0000   1.0000   1.0000   1.0000   1.0000   1.0000   1.0000
     1.0000   1.0000   1.0000   1.0000   1.0000   0.0000   0.0000   0.0000
     0.0000   0.0000   0.0000   0.0000   0.0000   0.0000   0.0000   0.0000
     0.0000   0.0000   0.0000   0.0000   0.0000   0.0000   0.0000   0.0000
     0.0000   0.0000   0.0000   0.0000   0.0000   0.0000   0.0000   0.0000
     0.0000   0.0000   0.0000   0.0000   0.0000   0.0000   0.0000   0.0000
     0.0000   0.0000   0.0000   0.0000   0.0000   0.0000   0.0000   0.0000
     0.0000   0.0000   0.0000   0.0000   0.0000   0.0000   0.0000   0.0000
     0.0000   0.0000   0.0000   0.0000   0.0000   0.0000   0.0000   0.0000
     0.0000   0.0000   0.0000   0.0000   0.0000   0.0000   0.0000   0.0000
     0.0000   0.0000   0.0000   0.0000   0.0000   0.0000   0.0000   0.0000
     0.0000   0.0000   0.0000   0.0000   0.0000   0.0000   0.0000   0.0000
     0.0000   0.0000   0.0000   0.0000   0.0000   0.0000   0.0000   0.0000
     0.0000   0.0000   0.0000   0.0000   0.0000   0.0000   0.0000   0.0000
     0.0000   0.0000   0.0000   0.0000   0.0000   0.0000   0.0000   0.0000
     0.0000   0.0000   0.0000   0.0000   0.0000   0.0000   0.0000   0.0000
     0.0000   0.0000   0.0000   0.0000   0.0000   0.0000   0.0000   0.0000
     0.0000   0.0000   0.0000   0.0000   0.0000   0.0000   0.0000   0.0000
     0.0000   0.0000   0.0000   0.0000   0.0000   0.0000   0.0000   0.0000
     0.0000   0.0000   0.0000   0.0000   0.0000   0.0000   0.0000   0.0000
     0.0000   0.0000   0.0000   0.0000   0.0000   0.0000   0.0000   0.0000
     0.0000   0.0000   0.0000   0.0000   0.0000   0.0000   0.0000   0.0000
     0.0000   0.0000   0.0000   0.0000   0.0000   0.0000   0.0000   0.0000
     0.0000   0.0000   0.0000   0.0000   0.0000   0.0000   0.0000   0.0000
     0.0000   0.0000   0.0000   0.0000   0.0000   0.0000   0.0000   0.0000

          k = 0.0000 0.0000-0.0595 ( 14940 PWs)   bands (ev):

   -66.6931 -40.8960 -40.6372 -40.6372 -20.1785 -18.8130 -11.7262  -8.6012
    -8.6012  -7.7928  -7.4461  -7.4461  -6.0182  -3.0914  -3.0914  -2.8120
    -2.8120  -0.3416  -0.1572   0.4374   2.1831   2.3409   3.1230   4.8343
     4.8343   5.3442   5.9897   6.8631   6.8631   7.1593   9.4641  10.0908
    10.1791  10.1791  10.4918  10.4918  10.5835  12.3868  13.9382  14.3623
    14.7415  17.0826  17.2134  17.2134  17.8334  18.8366  18.8366  19.3072
    19.4508  19.5361  19.5361  19.6940  19.6940  19.9016  20.2387  20.5356
    20.5356  20.8276  21.4634  21.4634  21.6640  21.8787  21.8787  22.0357
    22.1978  22.1978  22.2740  22.6177  22.6387  22.6387  22.9157  24.3185
    24.3742  24.3742  24.3796  24.3796  24.6843  25.2311  25.4798  25.4798
    25.6122  25.6122  26.2704  26.6547  27.2698  27.2698  27.7797  27.7797
    27.9384  28.2102  28.7195  28.9525  28.9525  29.2704  29.5639  29.5639
    30.8199  30.8388  30.8389  30.9595  31.3422  31.3422  31.5924  31.5924
    31.6615  32.4966  32.9332  33.5878  33.5878  33.8033  34.0567  34.0567
    34.2204  34.7734  35.0191  35.0191  36.0646  36.2333  36.2333  36.5091
    36.5314  36.5314  36.8790  37.2797  37.2797  37.6547  37.9739  37.9739
    38.6852  39.2197  39.2197  40.0518  40.1775  40.1775  40.5423  40.5432
    40.5432  40.9040  41.3574  41.3574  41.6171  41.6171  41.7262  42.1218
    42.7160  42.9585  42.9585  43.8704  44.6122  44.6122  45.0468  45.4771
    45.7552  45.7552  46.4861  46.6949  46.6949  46.8359  46.8359  47.1247
    47.9075  48.5298  49.2268  49.4642  49.4642  50.0146  50.0146  50.0533
    50.6420  50.6420  50.7546  51.6535  51.6535  51.9699  51.9699  52.1160
    52.9808  53.3415  53.3415  53.8917  54.6684  54.6684  54.8972  55.2504
    55.6194  55.6194  55.9514  56.4180  56.5758  56.5758  56.7597  57.0051
    57.0051  57.2094  57.5462  57.5462  58.6763  58.8109  58.9508  58.9508

     occupation numbers 
     1.0000   1.0000   1.0000   1.0000   1.0000   1.0000   1.0000   1.0000
     1.0000   1.0000   1.0000   1.0000   1.0000   0.0000   0.0000   0.0000
     0.0000   0.0000   0.0000   0.0000   0.0000   0.0000   0.0000   0.0000
     0.0000   0.0000   0.0000   0.0000   0.0000   0.0000   0.0000   0.0000
     0.0000   0.0000   0.0000   0.0000   0.0000   0.0000   0.0000   0.0000
     0.0000   0.0000   0.0000   0.0000   0.0000   0.0000   0.0000   0.0000
     0.0000   0.0000   0.0000   0.0000   0.0000   0.0000   0.0000   0.0000
     0.0000   0.0000   0.0000   0.0000   0.0000   0.0000   0.0000   0.0000
     0.0000   0.0000   0.0000   0.0000   0.0000   0.0000   0.0000   0.0000
     0.0000   0.0000   0.0000   0.0000   0.0000   0.0000   0.0000   0.0000
     0.0000   0.0000   0.0000   0.0000   0.0000   0.0000   0.0000   0.0000
     0.0000   0.0000   0.0000   0.0000   0.0000   0.0000   0.0000   0.0000
     0.0000   0.0000   0.0000   0.0000   0.0000   0.0000   0.0000   0.0000
     0.0000   0.0000   0.0000   0.0000   0.0000   0.0000   0.0000   0.0000
     0.0000   0.0000   0.0000   0.0000   0.0000   0.0000   0.0000   0.0000
     0.0000   0.0000   0.0000   0.0000   0.0000   0.0000   0.0000   0.0000
     0.0000   0.0000   0.0000   0.0000   0.0000   0.0000   0.0000   0.0000
     0.0000   0.0000   0.0000   0.0000   0.0000   0.0000   0.0000   0.0000
     0.0000   0.0000   0.0000   0.0000   0.0000   0.0000   0.0000   0.0000
     0.0000   0.0000   0.0000   0.0000   0.0000   0.0000   0.0000   0.0000
     0.0000   0.0000   0.0000   0.0000   0.0000   0.0000   0.0000   0.0000
     0.0000   0.0000   0.0000   0.0000   0.0000   0.0000   0.0000   0.0000
     0.0000   0.0000   0.0000   0.0000   0.0000   0.0000   0.0000   0.0000
     0.0000   0.0000   0.0000   0.0000   0.0000   0.0000   0.0000   0.0000
     0.0000   0.0000   0.0000   0.0000   0.0000   0.0000   0.0000   0.0000

          k = 0.0000 0.0000-0.0743 ( 14910 PWs)   bands (ev):

   -66.6931 -40.8960 -40.6372 -40.6372 -20.1785 -18.8130 -11.7262  -8.6012
    -8.6012  -7.7928  -7.4461  -7.4461  -6.0182  -3.0914  -3.0914  -2.8120
    -2.8120  -0.3416  -0.1572   0.4374   2.1832   2.3408   3.1230   4.8343
     4.8343   5.3445   5.9893   6.8631   6.8631   7.1594   9.4661  10.0896
    10.1791  10.1791  10.4918  10.4918  10.5800  12.3934  13.9371  14.4005
    14.6777  17.2134  17.2134  17.2726  17.6334  18.8366  18.8366  19.3117
    19.4469  19.5361  19.5361  19.6940  19.6940  19.9063  20.2387  20.5356
    20.5356  20.8918  21.4634  21.4634  21.6622  21.8787  21.8787  22.0790
    22.1977  22.1977  22.3665  22.4327  22.6387  22.6387  22.8964  24.3236
    24.3743  24.3743  24.3794  24.3794  24.6841  25.2364  25.4800  25.4800
    25.6119  25.6119  26.3398  26.6539  27.2704  27.2704  27.7790  27.7790
    27.9936  28.1038  28.7185  28.9539  28.9539  29.2405  29.5616  29.5616
    30.8408  30.8408  30.8820  30.9249  31.3379  31.3379  31.5981  31.5981
    31.6615  32.5222  32.9135  33.5768  33.5768  33.9823  34.0601  34.0709
    34.0709  34.7734  34.9955  34.9955  36.1311  36.3806  36.3806  36.3961
    36.4113  36.4113  36.8327  37.2997  37.2997  37.6674  37.9045  37.9045
    38.7686  39.2847  39.2847  39.9925  40.1394  40.1394  40.5924  40.5924
    40.6319  41.2177  41.3029  41.3401  41.3401  41.5754  41.5754  42.1218
    42.7490  42.9949  42.9949  43.9483  44.5792  44.5792  44.9002  45.4771
    45.7939  45.7939  46.6088  46.6754  46.6754  46.8330  46.8330  47.0529
    48.0146  48.6747  49.0400  49.4350  49.4350  50.1774  50.2268  50.2268
    50.4487  50.4487  50.5840  51.6726  51.6726  51.9064  51.9064  52.0319
    53.0341  53.3984  53.3984  53.8547  54.7432  54.7432  54.8972  55.5978
    55.5978  55.5987  55.8485  56.3778  56.5580  56.5580  56.6014  57.0048
    57.0048  57.3721  57.4341  57.4341  58.5969  58.6763  58.9858  58.9858

     occupation numbers 
     1.0000   1.0000   1.0000   1.0000   1.0000   1.0000   1.0000   1.0000
     1.0000   1.0000   1.0000   1.0000   1.0000   0.0000   0.0000   0.0000
     0.0000   0.0000   0.0000   0.0000   0.0000   0.0000   0.0000   0.0000
     0.0000   0.0000   0.0000   0.0000   0.0000   0.0000   0.0000   0.0000
     0.0000   0.0000   0.0000   0.0000   0.0000   0.0000   0.0000   0.0000
     0.0000   0.0000   0.0000   0.0000   0.0000   0.0000   0.0000   0.0000
     0.0000   0.0000   0.0000   0.0000   0.0000   0.0000   0.0000   0.0000
     0.0000   0.0000   0.0000   0.0000   0.0000   0.0000   0.0000   0.0000
     0.0000   0.0000   0.0000   0.0000   0.0000   0.0000   0.0000   0.0000
     0.0000   0.0000   0.0000   0.0000   0.0000   0.0000   0.0000   0.0000
     0.0000   0.0000   0.0000   0.0000   0.0000   0.0000   0.0000   0.0000
     0.0000   0.0000   0.0000   0.0000   0.0000   0.0000   0.0000   0.0000
     0.0000   0.0000   0.0000   0.0000   0.0000   0.0000   0.0000   0.0000
     0.0000   0.0000   0.0000   0.0000   0.0000   0.0000   0.0000   0.0000
     0.0000   0.0000   0.0000   0.0000   0.0000   0.0000   0.0000   0.0000
     0.0000   0.0000   0.0000   0.0000   0.0000   0.0000   0.0000   0.0000
     0.0000   0.0000   0.0000   0.0000   0.0000   0.0000   0.0000   0.0000
     0.0000   0.0000   0.0000   0.0000   0.0000   0.0000   0.0000   0.0000
     0.0000   0.0000   0.0000   0.0000   0.0000   0.0000   0.0000   0.0000
     0.0000   0.0000   0.0000   0.0000   0.0000   0.0000   0.0000   0.0000
     0.0000   0.0000   0.0000   0.0000   0.0000   0.0000   0.0000   0.0000
     0.0000   0.0000   0.0000   0.0000   0.0000   0.0000   0.0000   0.0000
     0.0000   0.0000   0.0000   0.0000   0.0000   0.0000   0.0000   0.0000
     0.0000   0.0000   0.0000   0.0000   0.0000   0.0000   0.0000   0.0000
     0.0000   0.0000   0.0000   0.0000   0.0000   0.0000   0.0000   0.0000

          k = 0.0000 0.0000-0.0669 ( 14934 PWs)   bands (ev):

   -66.6931 -40.8960 -40.6372 -40.6372 -20.1785 -18.8130 -11.7262  -8.6012
    -8.6012  -7.7928  -7.4461  -7.4461  -6.0182  -3.0914  -3.0914  -2.8120
    -2.8120  -0.3416  -0.1572   0.4374   2.1832   2.3408   3.1230   4.8343
     4.8343   5.3444   5.9894   6.8631   6.8631   7.1594   9.4655  10.0899
    10.1791  10.1791  10.4918  10.4918  10.5809  12.3917  13.9374  14.3893
    14.6954  17.2097  17.2134  17.2134  17.6989  18.8366  18.8366  19.3105
    19.4479  19.5361  19.5361  19.6940  19.6940  19.9052  20.2387  20.5356
    20.5356  20.8753  21.4634  21.4634  21.6627  21.8787  21.8787  22.0671
    22.1977  22.1977  22.3176  22.5070  22.6387  22.6387  22.9004  24.3224
    24.3742  24.3742  24.3794  24.3794  24.6842  25.2351  25.4800  25.4800
    25.6120  25.6120  26.3217  26.6541  27.2702  27.2702  27.7791  27.7791
    27.9719  28.1391  28.7188  28.9535  28.9535  29.2478  29.5622  29.5622
    30.8403  30.8403  30.8612  30.9388  31.3390  31.3390  31.5967  31.5967
    31.6615  32.5157  32.9185  33.5796  33.5796  33.9072  34.0673  34.0673
    34.1304  34.7737  35.0014  35.0014  36.1075  36.3160  36.3160  36.4320
    36.4692  36.4692  36.8435  37.2936  37.2936  37.6642  37.9228  37.9228
    38.7466  39.2673  39.2673  40.0097  40.1512  40.1512  40.5778  40.5778
    40.6173  41.0408  41.3451  41.3451  41.4989  41.5863  41.5863  42.1218
    42.7407  42.9854  42.9854  43.9249  44.5879  44.5879  44.9403  45.4771
    45.7834  45.7834  46.5748  46.6838  46.6838  46.8307  46.8307  47.0745
    47.9855  48.6233  49.1067  49.4432  49.4432  50.1299  50.1476  50.1476
    50.5230  50.5230  50.6401  51.6656  51.6656  51.9240  51.9240  52.0530
    53.0198  53.3838  53.3838  53.8656  54.7240  54.7240  54.8972  55.4604
    55.6039  55.6039  55.9414  56.3577  56.5618  56.5618  56.6595  57.0039
    57.0039  57.3175  57.4641  57.4641  58.6607  58.6763  58.9770  58.9770

     occupation numbers 
     1.0000   1.0000   1.0000   1.0000   1.0000   1.0000   1.0000   1.0000
     1.0000   1.0000   1.0000   1.0000   1.0000   0.0000   0.0000   0.0000
     0.0000   0.0000   0.0000   0.0000   0.0000   0.0000   0.0000   0.0000
     0.0000   0.0000   0.0000   0.0000   0.0000   0.0000   0.0000   0.0000
     0.0000   0.0000   0.0000   0.0000   0.0000   0.0000   0.0000   0.0000
     0.0000   0.0000   0.0000   0.0000   0.0000   0.0000   0.0000   0.0000
     0.0000   0.0000   0.0000   0.0000   0.0000   0.0000   0.0000   0.0000
     0.0000   0.0000   0.0000   0.0000   0.0000   0.0000   0.0000   0.0000
     0.0000   0.0000   0.0000   0.0000   0.0000   0.0000   0.0000   0.0000
     0.0000   0.0000   0.0000   0.0000   0.0000   0.0000   0.0000   0.0000
     0.0000   0.0000   0.0000   0.0000   0.0000   0.0000   0.0000   0.0000
     0.0000   0.0000   0.0000   0.0000   0.0000   0.0000   0.0000   0.0000
     0.0000   0.0000   0.0000   0.0000   0.0000   0.0000   0.0000   0.0000
     0.0000   0.0000   0.0000   0.0000   0.0000   0.0000   0.0000   0.0000
     0.0000   0.0000   0.0000   0.0000   0.0000   0.0000   0.0000   0.0000
     0.0000   0.0000   0.0000   0.0000   0.0000   0.0000   0.0000   0.0000
     0.0000   0.0000   0.0000   0.0000   0.0000   0.0000   0.0000   0.0000
     0.0000   0.0000   0.0000   0.0000   0.0000   0.0000   0.0000   0.0000
     0.0000   0.0000   0.0000   0.0000   0.0000   0.0000   0.0000   0.0000
     0.0000   0.0000   0.0000   0.0000   0.0000   0.0000   0.0000   0.0000
     0.0000   0.0000   0.0000   0.0000   0.0000   0.0000   0.0000   0.0000
     0.0000   0.0000   0.0000   0.0000   0.0000   0.0000   0.0000   0.0000
     0.0000   0.0000   0.0000   0.0000   0.0000   0.0000   0.0000   0.0000
     0.0000   0.0000   0.0000   0.0000   0.0000   0.0000   0.0000   0.0000
     0.0000   0.0000   0.0000   0.0000   0.0000   0.0000   0.0000   0.0000

          k = 0.0000 0.0000-0.0595 ( 14940 PWs)   bands (ev):

   -66.6931 -40.8960 -40.6372 -40.6372 -20.1785 -18.8130 -11.7262  -8.6012
    -8.6012  -7.7928  -7.4461  -7.4461  -6.0182  -3.0914  -3.0914  -2.8120
    -2.8120  -0.3416  -0.1572   0.4374   2.1831   2.3409   3.1230   4.8343
     4.8343   5.3442   5.9897   6.8631   6.8631   7.1593   9.4641  10.0908
    10.1791  10.1791  10.4918  10.4918  10.5835  12.3868  13.9382  14.3623
    14.7415  17.0826  17.2134  17.2134  17.8334  18.8366  18.8366  19.3072
    19.4508  19.5361  19.5361  19.6940  19.6940  19.9016  20.2387  20.5356
    20.5356  20.8276  21.4634  21.4634  21.6640  21.8787  21.8787  22.0357
    22.1978  22.1978  22.2740  22.6177  22.6387  22.6387  22.9157  24.3185
    24.3742  24.3742  24.3796  24.3796  24.6843  25.2311  25.4798  25.4798
    25.6122  25.6122  26.2704  26.6547  27.2698  27.2698  27.7797  27.7797
    27.9384  28.2102  28.7195  28.9525  28.9525  29.2704  29.5639  29.5639
    30.8199  30.8388  30.8389  30.9595  31.3422  31.3422  31.5924  31.5924
    31.6615  32.4966  32.9332  33.5878  33.5878  33.8033  34.0567  34.0567
    34.2204  34.7734  35.0191  35.0191  36.0646  36.2333  36.2333  36.5091
    36.5314  36.5314  36.8790  37.2797  37.2797  37.6547  37.9739  37.9739
    38.6852  39.2197  39.2197  40.0518  40.1775  40.1775  40.5423  40.5432
    40.5432  40.9040  41.3574  41.3574  41.6171  41.6171  41.7262  42.1218
    42.7160  42.9585  42.9585  43.8704  44.6122  44.6122  45.0468  45.4771
    45.7552  45.7552  46.4861  46.6949  46.6949  46.8359  46.8359  47.1247
    47.9075  48.5298  49.2268  49.4642  49.4642  50.0146  50.0146  50.0533
    50.6420  50.6420  50.7546  51.6535  51.6535  51.9699  51.9699  52.1160
    52.9808  53.3415  53.3415  53.8917  54.6684  54.6684  54.8972  55.2504
    55.6194  55.6194  55.9514  56.4180  56.5758  56.5758  56.7597  57.0051
    57.0051  57.2094  57.5462  57.5462  58.6763  58.8109  58.9508  58.9508

     occupation numbers 
     1.0000   1.0000   1.0000   1.0000   1.0000   1.0000   1.0000   1.0000
     1.0000   1.0000   1.0000   1.0000   1.0000   0.0000   0.0000   0.0000
     0.0000   0.0000   0.0000   0.0000   0.0000   0.0000   0.0000   0.0000
     0.0000   0.0000   0.0000   0.0000   0.0000   0.0000   0.0000   0.0000
     0.0000   0.0000   0.0000   0.0000   0.0000   0.0000   0.0000   0.0000
     0.0000   0.0000   0.0000   0.0000   0.0000   0.0000   0.0000   0.0000
     0.0000   0.0000   0.0000   0.0000   0.0000   0.0000   0.0000   0.0000
     0.0000   0.0000   0.0000   0.0000   0.0000   0.0000   0.0000   0.0000
     0.0000   0.0000   0.0000   0.0000   0.0000   0.0000   0.0000   0.0000
     0.0000   0.0000   0.0000   0.0000   0.0000   0.0000   0.0000   0.0000
     0.0000   0.0000   0.0000   0.0000   0.0000   0.0000   0.0000   0.0000
     0.0000   0.0000   0.0000   0.0000   0.0000   0.0000   0.0000   0.0000
     0.0000   0.0000   0.0000   0.0000   0.0000   0.0000   0.0000   0.0000
     0.0000   0.0000   0.0000   0.0000   0.0000   0.0000   0.0000   0.0000
     0.0000   0.0000   0.0000   0.0000   0.0000   0.0000   0.0000   0.0000
     0.0000   0.0000   0.0000   0.0000   0.0000   0.0000   0.0000   0.0000
     0.0000   0.0000   0.0000   0.0000   0.0000   0.0000   0.0000   0.0000
     0.0000   0.0000   0.0000   0.0000   0.0000   0.0000   0.0000   0.0000
     0.0000   0.0000   0.0000   0.0000   0.0000   0.0000   0.0000   0.0000
     0.0000   0.0000   0.0000   0.0000   0.0000   0.0000   0.0000   0.0000
     0.0000   0.0000   0.0000   0.0000   0.0000   0.0000   0.0000   0.0000
     0.0000   0.0000   0.0000   0.0000   0.0000   0.0000   0.0000   0.0000
     0.0000   0.0000   0.0000   0.0000   0.0000   0.0000   0.0000   0.0000
     0.0000   0.0000   0.0000   0.0000   0.0000   0.0000   0.0000   0.0000
     0.0000   0.0000   0.0000   0.0000   0.0000   0.0000   0.0000   0.0000

          k = 0.0000 0.0000-0.0520 ( 14928 PWs)   bands (ev):

   -66.6931 -40.8960 -40.6372 -40.6372 -20.1785 -18.8130 -11.7262  -8.6012
    -8.6012  -7.7928  -7.4461  -7.4461  -6.0182  -3.0914  -3.0914  -2.8120
    -2.8120  -0.3416  -0.1572   0.4374   2.1831   2.3409   3.1230   4.8343
     4.8343   5.3439   5.9902   6.8631   6.8631   7.1591   9.4618  10.0921
    10.1791  10.1791  10.4918  10.4918  10.5875  12.3793  13.9396  14.3298
    14.8051  16.9412  17.2134  17.2134  17.9874  18.8366  18.8366  19.3013
    19.4559  19.5361  19.5361  19.6940  19.6940  19.8952  20.2386  20.5356
    20.5356  20.7537  21.4635  21.4635  21.6658  21.8786  21.8786  21.9962
    22.1978  22.1978  22.2506  22.6386  22.6386  22.7198  22.9566  24.3117
    24.3740  24.3740  24.3797  24.3797  24.6846  25.2240  25.4795  25.4795
    25.6126  25.6126  26.1933  26.6555  27.2690  27.2690  27.7806  27.7806
    27.9108  28.2918  28.7205  28.9510  28.9510  29.3100  29.5665  29.5665
    30.7663  30.8366  30.8366  30.9786  31.3474  31.3474  31.5856  31.5856
    31.6615  32.4665  32.9566  33.6012  33.6012  33.7014  34.0397  34.0397
    34.3010  34.7691  35.0482  35.0482  36.0319  36.1460  36.1460  36.5832
    36.5832  36.5909  36.9454  37.2666  37.2666  37.6404  38.0490  38.0490
    38.5962  39.1516  39.1516  40.0797  40.1914  40.1914  40.4040  40.5156
    40.5156  40.8819  41.3722  41.3722  41.6616  41.6616  41.9324  42.1218
    42.6763  42.9182  42.9182  43.8166  44.6485  44.6485  45.1938  45.4771
    45.7169  45.7169  46.3619  46.6775  46.6775  46.8749  46.8749  47.1798
    47.8025  48.4386  49.3009  49.4851  49.4851  49.8916  49.8916  50.0384
    50.7468  50.7468  50.8748  51.6526  51.6526  52.0333  52.0333  52.2179
    52.9262  53.2763  53.2763  53.9146  54.5819  54.5819  54.8972  55.0624
    55.6388  55.6388  55.8251  56.5088  56.6038  56.6038  56.8373  57.0155
    57.0155  57.1878  57.6635  57.6635  58.6763  58.9089  58.9089  58.9694

     occupation numbers 
     1.0000   1.0000   1.0000   1.0000   1.0000   1.0000   1.0000   1.0000
     1.0000   1.0000   1.0000   1.0000   1.0000   0.0000   0.0000   0.0000
     0.0000   0.0000   0.0000   0.0000   0.0000   0.0000   0.0000   0.0000
     0.0000   0.0000   0.0000   0.0000   0.0000   0.0000   0.0000   0.0000
     0.0000   0.0000   0.0000   0.0000   0.0000   0.0000   0.0000   0.0000
     0.0000   0.0000   0.0000   0.0000   0.0000   0.0000   0.0000   0.0000
     0.0000   0.0000   0.0000   0.0000   0.0000   0.0000   0.0000   0.0000
     0.0000   0.0000   0.0000   0.0000   0.0000   0.0000   0.0000   0.0000
     0.0000   0.0000   0.0000   0.0000   0.0000   0.0000   0.0000   0.0000
     0.0000   0.0000   0.0000   0.0000   0.0000   0.0000   0.0000   0.0000
     0.0000   0.0000   0.0000   0.0000   0.0000   0.0000   0.0000   0.0000
     0.0000   0.0000   0.0000   0.0000   0.0000   0.0000   0.0000   0.0000
     0.0000   0.0000   0.0000   0.0000   0.0000   0.0000   0.0000   0.0000
     0.0000   0.0000   0.0000   0.0000   0.0000   0.0000   0.0000   0.0000
     0.0000   0.0000   0.0000   0.0000   0.0000   0.0000   0.0000   0.0000
     0.0000   0.0000   0.0000   0.0000   0.0000   0.0000   0.0000   0.0000
     0.0000   0.0000   0.0000   0.0000   0.0000   0.0000   0.0000   0.0000
     0.0000   0.0000   0.0000   0.0000   0.0000   0.0000   0.0000   0.0000
     0.0000   0.0000   0.0000   0.0000   0.0000   0.0000   0.0000   0.0000
     0.0000   0.0000   0.0000   0.0000   0.0000   0.0000   0.0000   0.0000
     0.0000   0.0000   0.0000   0.0000   0.0000   0.0000   0.0000   0.0000
     0.0000   0.0000   0.0000   0.0000   0.0000   0.0000   0.0000   0.0000
     0.0000   0.0000   0.0000   0.0000   0.0000   0.0000   0.0000   0.0000
     0.0000   0.0000   0.0000   0.0000   0.0000   0.0000   0.0000   0.0000
     0.0000   0.0000   0.0000   0.0000   0.0000   0.0000   0.0000   0.0000

          k = 0.0000 0.0000-0.0446 ( 14946 PWs)   bands (ev):

   -66.6931 -40.8960 -40.6372 -40.6372 -20.1785 -18.8130 -11.7262  -8.6012
    -8.6012  -7.7928  -7.4461  -7.4461  -6.0182  -3.0914  -3.0914  -2.8120
    -2.8120  -0.3417  -0.1572   0.4374   2.1830   2.3410   3.1230   4.8343
     4.8343   5.3436   5.9909   6.8631   6.8631   7.1588   9.4590  10.0937
    10.1791  10.1791  10.4918  10.4918  10.5926  12.3697  13.9413  14.2978
    14.8788  16.7993  17.2134  17.2134  18.1469  18.8366  18.8366  19.2925
    19.4635  19.5361  19.5361  19.6940  19.6940  19.8847  20.2385  20.5356
    20.5356  20.6612  21.4635  21.4635  21.6679  21.8786  21.8786  21.9591
    22.1979  22.1979  22.2385  22.6386  22.6386  22.7835  23.0447  24.3013
    24.3739  24.3739  24.3800  24.3800  24.6849  25.2134  25.4791  25.4791
    25.6130  25.6130  26.1003  26.6565  27.2681  27.2681  27.7817  27.7817
    27.8900  28.3730  28.7211  28.9491  28.9491  29.3686  29.5697  29.5697
    30.7005  30.8339  30.8339  30.9958  31.3544  31.3544  31.5767  31.5767
    31.6615  32.4279  32.9871  33.6066  33.6197  33.6197  34.0168  34.0168
    34.3696  34.7575  35.0878  35.0878  36.0194  36.0555  36.0555  36.6221
    36.6221  36.6621  37.0444  37.2619  37.2619  37.6235  38.1393  38.1393
    38.4918  39.0727  39.0727  39.9855  40.1613  40.1613  40.3520  40.5272
    40.5272  40.9257  41.3879  41.3879  41.7109  41.7109  42.0956  42.1218
    42.6276  42.8699  42.8699  43.7937  44.6911  44.6911  45.3577  45.4771
    45.6770  45.6770  46.2163  46.6306  46.6306  46.9446  46.9446  47.2223
    47.6921  48.3595  49.2790  49.4733  49.4733  49.8184  49.8184  50.1309
    50.8194  50.8194  50.9841  51.6757  51.6757  52.1077  52.1077  52.3479
    52.8688  53.1948  53.1948  53.9096  54.4714  54.4714  54.8972  54.9300
    55.6430  55.6568  55.6568  56.4379  56.6449  56.6449  56.9487  57.0421
    57.0421  57.3268  57.7982  57.7982  58.6763  58.8554  58.8554  59.0616

     occupation numbers 
     1.0000   1.0000   1.0000   1.0000   1.0000   1.0000   1.0000   1.0000
     1.0000   1.0000   1.0000   1.0000   1.0000   0.0000   0.0000   0.0000
     0.0000   0.0000   0.0000   0.0000   0.0000   0.0000   0.0000   0.0000
     0.0000   0.0000   0.0000   0.0000   0.0000   0.0000   0.0000   0.0000
     0.0000   0.0000   0.0000   0.0000   0.0000   0.0000   0.0000   0.0000
     0.0000   0.0000   0.0000   0.0000   0.0000   0.0000   0.0000   0.0000
     0.0000   0.0000   0.0000   0.0000   0.0000   0.0000   0.0000   0.0000
     0.0000   0.0000   0.0000   0.0000   0.0000   0.0000   0.0000   0.0000
     0.0000   0.0000   0.0000   0.0000   0.0000   0.0000   0.0000   0.0000
     0.0000   0.0000   0.0000   0.0000   0.0000   0.0000   0.0000   0.0000
     0.0000   0.0000   0.0000   0.0000   0.0000   0.0000   0.0000   0.0000
     0.0000   0.0000   0.0000   0.0000   0.0000   0.0000   0.0000   0.0000
     0.0000   0.0000   0.0000   0.0000   0.0000   0.0000   0.0000   0.0000
     0.0000   0.0000   0.0000   0.0000   0.0000   0.0000   0.0000   0.0000
     0.0000   0.0000   0.0000   0.0000   0.0000   0.0000   0.0000   0.0000
     0.0000   0.0000   0.0000   0.0000   0.0000   0.0000   0.0000   0.0000
     0.0000   0.0000   0.0000   0.0000   0.0000   0.0000   0.0000   0.0000
     0.0000   0.0000   0.0000   0.0000   0.0000   0.0000   0.0000   0.0000
     0.0000   0.0000   0.0000   0.0000   0.0000   0.0000   0.0000   0.0000
     0.0000   0.0000   0.0000   0.0000   0.0000   0.0000   0.0000   0.0000
     0.0000   0.0000   0.0000   0.0000   0.0000   0.0000   0.0000   0.0000
     0.0000   0.0000   0.0000   0.0000   0.0000   0.0000   0.0000   0.0000
     0.0000   0.0000   0.0000   0.0000   0.0000   0.0000   0.0000   0.0000
     0.0000   0.0000   0.0000   0.0000   0.0000   0.0000   0.0000   0.0000
     0.0000   0.0000   0.0000   0.0000   0.0000   0.0000   0.0000   0.0000

          k = 0.0000 0.0000-0.0372 ( 14934 PWs)   bands (ev):

   -66.6931 -40.8960 -40.6372 -40.6372 -20.1785 -18.8130 -11.7262  -8.6012
    -8.6012  -7.7928  -7.4461  -7.4461  -6.0182  -3.0914  -3.0914  -2.8120
    -2.8120  -0.3417  -0.1572   0.4374   2.1830   2.3411   3.1230   4.8343
     4.8343   5.3432   5.9916   6.8631   6.8631   7.1585   9.4559  10.0955
    10.1791  10.1791  10.4918  10.4918  10.5983  12.3592  13.9433  14.2690
    14.9579  16.6628  17.2134  17.2134  18.3063  18.8366  18.8366  19.2801
    19.4741  19.5361  19.5361  19.6940  19.6940  19.8684  20.2384  20.5356
    20.5356  20.5594  21.4635  21.4635  21.6701  21.8786  21.8786  21.9288
    22.1979  22.1979  22.2320  22.6385  22.6385  22.8115  23.1713  24.2863
    24.3737  24.3737  24.3802  24.3802  24.6853  25.1986  25.4787  25.4787
    25.6135  25.6135  26.0019  26.6575  27.2671  27.2671  27.7829  27.7829
    27.8748  28.4465  28.7212  28.9470  28.9470  29.4475  29.5733  29.5734
    30.6221  30.8308  30.8308  31.0112  31.3627  31.3627  31.5661  31.5661
    31.6615  32.3844  33.0228  33.5218  33.6428  33.6428  33.9890  33.9890
    34.4261  34.7375  35.1373  35.1373  35.9629  35.9629  36.0264  36.6475
    36.6475  36.7241  37.1647  37.2692  37.2692  37.6089  38.2375  38.2375
    38.3837  38.9909  38.9909  39.7790  40.0891  40.0891  40.4015  40.5761
    40.5761  41.0040  41.4049  41.4049  41.7558  41.7558  42.1218  42.1855
    42.5870  42.8202  42.8202  43.8249  44.7340  44.7340  45.4771  45.5073
    45.6432  45.6432  46.0737  46.5683  46.5683  47.0277  47.0277  47.2389
    47.5873  48.3021  49.1890  49.4020  49.4020  49.8229  49.8229  50.2960
    50.8529  50.8529  51.0814  51.7277  51.7277  52.1885  52.1885  52.4706
    52.8382  53.1048  53.1048  53.8603  54.3452  54.3452  54.8758  54.8972
    55.4285  55.6708  55.6708  56.2685  56.6909  56.6909  57.0898  57.0926
    57.0926  57.5537  57.9306  57.9306  58.6763  58.8006  58.8006  59.0535

     occupation numbers 
     1.0000   1.0000   1.0000   1.0000   1.0000   1.0000   1.0000   1.0000
     1.0000   1.0000   1.0000   1.0000   1.0000   0.0000   0.0000   0.0000
     0.0000   0.0000   0.0000   0.0000   0.0000   0.0000   0.0000   0.0000
     0.0000   0.0000   0.0000   0.0000   0.0000   0.0000   0.0000   0.0000
     0.0000   0.0000   0.0000   0.0000   0.0000   0.0000   0.0000   0.0000
     0.0000   0.0000   0.0000   0.0000   0.0000   0.0000   0.0000   0.0000
     0.0000   0.0000   0.0000   0.0000   0.0000   0.0000   0.0000   0.0000
     0.0000   0.0000   0.0000   0.0000   0.0000   0.0000   0.0000   0.0000
     0.0000   0.0000   0.0000   0.0000   0.0000   0.0000   0.0000   0.0000
     0.0000   0.0000   0.0000   0.0000   0.0000   0.0000   0.0000   0.0000
     0.0000   0.0000   0.0000   0.0000   0.0000   0.0000   0.0000   0.0000
     0.0000   0.0000   0.0000   0.0000   0.0000   0.0000   0.0000   0.0000
     0.0000   0.0000   0.0000   0.0000   0.0000   0.0000   0.0000   0.0000
     0.0000   0.0000   0.0000   0.0000   0.0000   0.0000   0.0000   0.0000
     0.0000   0.0000   0.0000   0.0000   0.0000   0.0000   0.0000   0.0000
     0.0000   0.0000   0.0000   0.0000   0.0000   0.0000   0.0000   0.0000
     0.0000   0.0000   0.0000   0.0000   0.0000   0.0000   0.0000   0.0000
     0.0000   0.0000   0.0000   0.0000   0.0000   0.0000   0.0000   0.0000
     0.0000   0.0000   0.0000   0.0000   0.0000   0.0000   0.0000   0.0000
     0.0000   0.0000   0.0000   0.0000   0.0000   0.0000   0.0000   0.0000
     0.0000   0.0000   0.0000   0.0000   0.0000   0.0000   0.0000   0.0000
     0.0000   0.0000   0.0000   0.0000   0.0000   0.0000   0.0000   0.0000
     0.0000   0.0000   0.0000   0.0000   0.0000   0.0000   0.0000   0.0000
     0.0000   0.0000   0.0000   0.0000   0.0000   0.0000   0.0000   0.0000
     0.0000   0.0000   0.0000   0.0000   0.0000   0.0000   0.0000   0.0000

          k = 0.0000 0.0000-0.0297 ( 14904 PWs)   bands (ev):

   -66.6931 -40.8960 -40.6372 -40.6372 -20.1785 -18.8130 -11.7262  -8.6012
    -8.6012  -7.7928  -7.4461  -7.4461  -6.0182  -3.0914  -3.0914  -2.8120
    -2.8120  -0.3417  -0.1572   0.4374   2.1829   2.3412   3.1230   4.8343
     4.8343   5.3428   5.9923   6.8631   6.8631   7.1582   9.4528  10.0972
    10.1791  10.1791  10.4918  10.4918  10.6040  12.3486  13.9454  14.2446
    15.0380  16.5360  17.2134  17.2134  18.4614  18.8366  18.8366  19.2630
    19.4886  19.5361  19.5361  19.6940  19.6940  19.8436  20.2381  20.4588
    20.5356  20.5356  21.4636  21.4636  21.6720  21.8785  21.8785  21.9058
    22.1980  22.1980  22.2282  22.6384  22.6384  22.8239  23.3105  24.2656
    24.3735  24.3735  24.3804  24.3804  24.6858  25.1795  25.4783  25.4783
    25.6140  25.6140  25.9079  26.6585  27.2661  27.2661  27.7841  27.7841
    27.8637  28.5080  28.7201  28.9450  28.9450  29.5461  29.5770  29.5770
    30.5309  30.8278  30.8278  31.0248  31.3718  31.3718  31.5547  31.5547
    31.6615  32.3403  33.0615  33.4481  33.6699  33.6699  33.9573  33.9573
    34.4712  34.7111  35.1957  35.1957  35.8690  35.8690  36.0469  36.6611
    36.6611  36.7837  37.2814  37.2871  37.2871  37.6082  38.2831  38.3372
    38.3372  38.9122  38.9123  39.5488  39.9989  39.9989  40.4685  40.6390
    40.6390  41.1071  41.4239  41.4239  41.7891  41.7891  42.1218  42.1773
    42.5751  42.7750  42.7750  43.9207  44.7716  44.7716  45.4771  45.5563
    45.6208  45.6208  46.0177  46.5003  46.5003  47.1132  47.1132  47.2208
    47.4889  48.2789  49.0727  49.2996  49.2996  49.8761  49.8761  50.4810
    50.8516  50.8516  51.1742  51.8026  51.8026  52.2701  52.2701  52.5038
    52.9017  53.0152  53.0152  53.7816  54.2123  54.2123  54.8958  54.8972
    55.1897  55.6805  55.6805  56.0834  56.7309  56.7309  57.1720  57.1720
    57.2233  57.8194  58.0331  58.0331  58.6763  58.7651  58.7651  58.9778

     occupation numbers 
     1.0000   1.0000   1.0000   1.0000   1.0000   1.0000   1.0000   1.0000
     1.0000   1.0000   1.0000   1.0000   1.0000   0.0000   0.0000   0.0000
     0.0000   0.0000   0.0000   0.0000   0.0000   0.0000   0.0000   0.0000
     0.0000   0.0000   0.0000   0.0000   0.0000   0.0000   0.0000   0.0000
     0.0000   0.0000   0.0000   0.0000   0.0000   0.0000   0.0000   0.0000
     0.0000   0.0000   0.0000   0.0000   0.0000   0.0000   0.0000   0.0000
     0.0000   0.0000   0.0000   0.0000   0.0000   0.0000   0.0000   0.0000
     0.0000   0.0000   0.0000   0.0000   0.0000   0.0000   0.0000   0.0000
     0.0000   0.0000   0.0000   0.0000   0.0000   0.0000   0.0000   0.0000
     0.0000   0.0000   0.0000   0.0000   0.0000   0.0000   0.0000   0.0000
     0.0000   0.0000   0.0000   0.0000   0.0000   0.0000   0.0000   0.0000
     0.0000   0.0000   0.0000   0.0000   0.0000   0.0000   0.0000   0.0000
     0.0000   0.0000   0.0000   0.0000   0.0000   0.0000   0.0000   0.0000
     0.0000   0.0000   0.0000   0.0000   0.0000   0.0000   0.0000   0.0000
     0.0000   0.0000   0.0000   0.0000   0.0000   0.0000   0.0000   0.0000
     0.0000   0.0000   0.0000   0.0000   0.0000   0.0000   0.0000   0.0000
     0.0000   0.0000   0.0000   0.0000   0.0000   0.0000   0.0000   0.0000
     0.0000   0.0000   0.0000   0.0000   0.0000   0.0000   0.0000   0.0000
     0.0000   0.0000   0.0000   0.0000   0.0000   0.0000   0.0000   0.0000
     0.0000   0.0000   0.0000   0.0000   0.0000   0.0000   0.0000   0.0000
     0.0000   0.0000   0.0000   0.0000   0.0000   0.0000   0.0000   0.0000
     0.0000   0.0000   0.0000   0.0000   0.0000   0.0000   0.0000   0.0000
     0.0000   0.0000   0.0000   0.0000   0.0000   0.0000   0.0000   0.0000
     0.0000   0.0000   0.0000   0.0000   0.0000   0.0000   0.0000   0.0000
     0.0000   0.0000   0.0000   0.0000   0.0000   0.0000   0.0000   0.0000

          k = 0.0000 0.0000-0.0223 ( 14904 PWs)   bands (ev):

   -66.6931 -40.8960 -40.6372 -40.6372 -20.1785 -18.8130 -11.7262  -8.6012
    -8.6012  -7.7928  -7.4461  -7.4461  -6.0182  -3.0914  -3.0914  -2.8120
    -2.8120  -0.3417  -0.1572   0.4374   2.1828   2.3412   3.1230   4.8343
     4.8343   5.3424   5.9930   6.8631   6.8631   7.1580   9.4501  10.0987
    10.1791  10.1791  10.4918  10.4918  10.6092  12.3391  13.9474  14.2252
    15.1140  16.4237  17.2134  17.2134  18.6075  18.8366  18.8366  19.2399
    19.5082  19.5361  19.5361  19.6940  19.6940  19.8078  20.2374  20.3706
    20.5356  20.5356  21.4636  21.4636  21.6736  21.8785  21.8785  21.8893
    22.1981  22.1981  22.2259  22.6384  22.6384  22.8300  23.4462  24.2386
    24.3734  24.3734  24.3807  24.3807  24.6862  25.1571  25.4780  25.4780
    25.6144  25.6144  25.8273  26.6594  27.2651  27.2651  27.7852  27.7852
    27.8558  28.5559  28.7177  28.9431  28.9431  29.5802  29.5802  29.6612
    30.4273  30.8250  30.8250  31.0363  31.3811  31.3811  31.5435  31.5435
    31.6615  32.3000  33.1010  33.3856  33.7007  33.7007  33.9226  33.9226
    34.5059  34.6828  35.2620  35.2620  35.7749  35.7749  36.0726  36.6665
    36.6665  36.8445  37.3110  37.3110  37.3557  37.6440  38.2044  38.4320
    38.4320  38.8417  38.8417  39.3233  39.9085  39.9085  40.5285  40.6995
    40.6995  41.2297  41.4451  41.4451  41.8071  41.8071  42.0915  42.1218
    42.5816  42.7389  42.7389  44.0757  44.8002  44.8002  45.4293  45.4771
    45.6116  45.6116  46.1237  46.4342  46.4342  47.1612  47.1924  47.1924
    47.4001  48.2957  48.9506  49.1984  49.1984  49.9447  49.9447  50.6495
    50.8273  50.8273  51.2742  51.8881  51.8881  52.3429  52.3429  52.4371
    52.9370  52.9370  53.0421  53.7220  54.0832  54.0832  54.8972  54.9150
    54.9850  55.6865  55.6865  55.9054  56.7591  56.7591  57.2776  57.2776
    57.3415  58.0721  58.0721  58.1017  58.6763  58.7779  58.7779  58.8782

     occupation numbers 
     1.0000   1.0000   1.0000   1.0000   1.0000   1.0000   1.0000   1.0000
     1.0000   1.0000   1.0000   1.0000   1.0000   0.0000   0.0000   0.0000
     0.0000   0.0000   0.0000   0.0000   0.0000   0.0000   0.0000   0.0000
     0.0000   0.0000   0.0000   0.0000   0.0000   0.0000   0.0000   0.0000
     0.0000   0.0000   0.0000   0.0000   0.0000   0.0000   0.0000   0.0000
     0.0000   0.0000   0.0000   0.0000   0.0000   0.0000   0.0000   0.0000
     0.0000   0.0000   0.0000   0.0000   0.0000   0.0000   0.0000   0.0000
     0.0000   0.0000   0.0000   0.0000   0.0000   0.0000   0.0000   0.0000
     0.0000   0.0000   0.0000   0.0000   0.0000   0.0000   0.0000   0.0000
     0.0000   0.0000   0.0000   0.0000   0.0000   0.0000   0.0000   0.0000
     0.0000   0.0000   0.0000   0.0000   0.0000   0.0000   0.0000   0.0000
     0.0000   0.0000   0.0000   0.0000   0.0000   0.0000   0.0000   0.0000
     0.0000   0.0000   0.0000   0.0000   0.0000   0.0000   0.0000   0.0000
     0.0000   0.0000   0.0000   0.0000   0.0000   0.0000   0.0000   0.0000
     0.0000   0.0000   0.0000   0.0000   0.0000   0.0000   0.0000   0.0000
     0.0000   0.0000   0.0000   0.0000   0.0000   0.0000   0.0000   0.0000
     0.0000   0.0000   0.0000   0.0000   0.0000   0.0000   0.0000   0.0000
     0.0000   0.0000   0.0000   0.0000   0.0000   0.0000   0.0000   0.0000
     0.0000   0.0000   0.0000   0.0000   0.0000   0.0000   0.0000   0.0000
     0.0000   0.0000   0.0000   0.0000   0.0000   0.0000   0.0000   0.0000
     0.0000   0.0000   0.0000   0.0000   0.0000   0.0000   0.0000   0.0000
     0.0000   0.0000   0.0000   0.0000   0.0000   0.0000   0.0000   0.0000
     0.0000   0.0000   0.0000   0.0000   0.0000   0.0000   0.0000   0.0000
     0.0000   0.0000   0.0000   0.0000   0.0000   0.0000   0.0000   0.0000
     0.0000   0.0000   0.0000   0.0000   0.0000   0.0000   0.0000   0.0000

          k = 0.0000 0.0000-0.0149 ( 14916 PWs)   bands (ev):

   -66.6931 -40.8960 -40.6372 -40.6372 -20.1785 -18.8130 -11.7262  -8.6012
    -8.6012  -7.7928  -7.4461  -7.4461  -6.0182  -3.0914  -3.0914  -2.8120
    -2.8120  -0.3417  -0.1572   0.4374   2.1828   2.3413   3.1230   4.8343
     4.8343   5.3421   5.9935   6.8631   6.8631   7.1578   9.4479  10.0999
    10.1791  10.1791  10.4918  10.4918  10.6134  12.3316  13.9491  14.2112
    15.1791  16.3328  17.2134  17.2134  18.7371  18.8366  18.8366  19.2101
    19.5340  19.5361  19.5361  19.6940  19.6940  19.7608  20.2357  20.3047
    20.5356  20.5356  21.4636  21.4636  21.6749  21.8782  21.8785  21.8785
    22.1981  22.1981  22.2246  22.6383  22.6383  22.8333  23.5655  24.2066
    24.3732  24.3732  24.3808  24.3808  24.6865  25.1346  25.4777  25.4777
    25.6148  25.6148  25.7666  26.6600  27.2644  27.2644  27.7860  27.7861
    27.8505  28.5906  28.7142  28.9416  28.9416  29.5828  29.5828  29.7880
    30.3125  30.8229  30.8229  31.0450  31.3893  31.3893  31.5336  31.5336
    31.6615  32.2678  33.1392  33.3340  33.7342  33.7342  33.8860  33.8860
    34.5305  34.6577  35.3351  35.3351  35.6818  35.6818  36.0960  36.6674
    36.6674  36.9041  37.3343  37.3343  37.3705  37.7115  38.1664  38.5145
    38.5145  38.7832  38.7832  39.1193  39.8307  39.8307  40.5739  40.7483
    40.7483  41.3664  41.4667  41.4667  41.8112  41.8112  41.9665  42.1218
    42.5873  42.7141  42.7141  44.2743  44.8188  44.8188  45.2194  45.4771
    45.6133  45.6133  46.2990  46.3776  46.3776  47.0523  47.2574  47.2574
    47.3366  48.3453  48.8331  49.1151  49.1151  50.0097  50.0097  50.7756
    50.7939  50.7939  51.3892  51.9703  51.9703  52.3299  52.3924  52.3924
    52.8833  52.8833  53.1558  53.7499  53.9710  53.9710  54.6577  54.8972
    55.0738  55.6901  55.6901  55.7420  56.7763  56.7763  57.3972  57.3972
    57.4385  58.0388  58.0388  58.3889  58.6763  58.7841  58.8428  58.8429

     occupation numbers 
     1.0000   1.0000   1.0000   1.0000   1.0000   1.0000   1.0000   1.0000
     1.0000   1.0000   1.0000   1.0000   1.0000   0.0000   0.0000   0.0000
     0.0000   0.0000   0.0000   0.0000   0.0000   0.0000   0.0000   0.0000
     0.0000   0.0000   0.0000   0.0000   0.0000   0.0000   0.0000   0.0000
     0.0000   0.0000   0.0000   0.0000   0.0000   0.0000   0.0000   0.0000
     0.0000   0.0000   0.0000   0.0000   0.0000   0.0000   0.0000   0.0000
     0.0000   0.0000   0.0000   0.0000   0.0000   0.0000   0.0000   0.0000
     0.0000   0.0000   0.0000   0.0000   0.0000   0.0000   0.0000   0.0000
     0.0000   0.0000   0.0000   0.0000   0.0000   0.0000   0.0000   0.0000
     0.0000   0.0000   0.0000   0.0000   0.0000   0.0000   0.0000   0.0000
     0.0000   0.0000   0.0000   0.0000   0.0000   0.0000   0.0000   0.0000
     0.0000   0.0000   0.0000   0.0000   0.0000   0.0000   0.0000   0.0000
     0.0000   0.0000   0.0000   0.0000   0.0000   0.0000   0.0000   0.0000
     0.0000   0.0000   0.0000   0.0000   0.0000   0.0000   0.0000   0.0000
     0.0000   0.0000   0.0000   0.0000   0.0000   0.0000   0.0000   0.0000
     0.0000   0.0000   0.0000   0.0000   0.0000   0.0000   0.0000   0.0000
     0.0000   0.0000   0.0000   0.0000   0.0000   0.0000   0.0000   0.0000
     0.0000   0.0000   0.0000   0.0000   0.0000   0.0000   0.0000   0.0000
     0.0000   0.0000   0.0000   0.0000   0.0000   0.0000   0.0000   0.0000
     0.0000   0.0000   0.0000   0.0000   0.0000   0.0000   0.0000   0.0000
     0.0000   0.0000   0.0000   0.0000   0.0000   0.0000   0.0000   0.0000
     0.0000   0.0000   0.0000   0.0000   0.0000   0.0000   0.0000   0.0000
     0.0000   0.0000   0.0000   0.0000   0.0000   0.0000   0.0000   0.0000
     0.0000   0.0000   0.0000   0.0000   0.0000   0.0000   0.0000   0.0000
     0.0000   0.0000   0.0000   0.0000   0.0000   0.0000   0.0000   0.0000

          k = 0.0000 0.0000-0.0074 ( 14927 PWs)   bands (ev):

   -66.6931 -40.8960 -40.6372 -40.6372 -20.1785 -18.8130 -11.7262  -8.6012
    -8.6012  -7.7928  -7.4461  -7.4461  -6.0182  -3.0914  -3.0914  -2.8120
    -2.8120  -0.3417  -0.1572   0.4374   2.1827   2.3413   3.1230   4.8343
     4.8343   5.3419   5.9938   6.8631   6.8631   7.1577   9.4466  10.1006
    10.1791  10.1791  10.4918  10.4918  10.6161  12.3268  13.9502  14.2027
    15.2243  16.2722  17.2134  17.2134  18.8361  18.8366  18.8366  19.1775
    19.5361  19.5361  19.5651  19.6940  19.6940  19.7102  20.2317  20.2680
    20.5356  20.5356  21.4636  21.4636  21.6756  21.8719  21.8784  21.8784
    22.1981  22.1981  22.2239  22.6383  22.6383  22.8349  23.6523  24.1765
    24.3732  24.3732  24.3809  24.3809  24.6868  25.1173  25.4775  25.4775
    25.6150  25.6150  25.7295  26.6605  27.2639  27.2639  27.7866  27.7866
    27.8475  28.6120  28.7107  28.9407  28.9407  29.5844  29.5844  29.9206
    30.1885  30.8215  30.8215  31.0506  31.3952  31.3952  31.5266  31.5266
    31.6615  32.2470  33.1723  33.2941  33.7695  33.7695  33.8488  33.8488
    34.5453  34.6404  35.4135  35.4135  35.5913  35.5913  36.1118  36.6668
    36.6668  36.9520  37.3511  37.3511  37.3576  37.7607  38.1774  38.5758
    38.5758  38.7404  38.7404  38.9625  39.7773  39.7773  40.6021  40.7797
    40.7797  41.4842  41.4842  41.5111  41.8075  41.8075  41.8251  42.1218
    42.5889  42.7002  42.7002  44.5002  44.8285  44.8285  44.9835  45.4771
    45.6193  45.6193  46.3388  46.3388  46.4835  46.9067  47.3005  47.3005
    47.3029  48.4093  48.7324  49.0604  49.0604  50.0572  50.0572  50.7654
    50.7654  50.8485  51.5026  52.0337  52.0337  52.2224  52.4108  52.4108
    52.8601  52.8601  53.1971  53.8921  53.8921  53.9004  54.3881  54.8972
    55.1780  55.6039  55.6920  55.6920  56.7853  56.7853  57.5045  57.5082
    57.5082  57.9686  57.9686  58.6711  58.6763  58.7189  58.9202  58.9202

     occupation numbers 
     1.0000   1.0000   1.0000   1.0000   1.0000   1.0000   1.0000   1.0000
     1.0000   1.0000   1.0000   1.0000   1.0000   0.0000   0.0000   0.0000
     0.0000   0.0000   0.0000   0.0000   0.0000   0.0000   0.0000   0.0000
     0.0000   0.0000   0.0000   0.0000   0.0000   0.0000   0.0000   0.0000
     0.0000   0.0000   0.0000   0.0000   0.0000   0.0000   0.0000   0.0000
     0.0000   0.0000   0.0000   0.0000   0.0000   0.0000   0.0000   0.0000
     0.0000   0.0000   0.0000   0.0000   0.0000   0.0000   0.0000   0.0000
     0.0000   0.0000   0.0000   0.0000   0.0000   0.0000   0.0000   0.0000
     0.0000   0.0000   0.0000   0.0000   0.0000   0.0000   0.0000   0.0000
     0.0000   0.0000   0.0000   0.0000   0.0000   0.0000   0.0000   0.0000
     0.0000   0.0000   0.0000   0.0000   0.0000   0.0000   0.0000   0.0000
     0.0000   0.0000   0.0000   0.0000   0.0000   0.0000   0.0000   0.0000
     0.0000   0.0000   0.0000   0.0000   0.0000   0.0000   0.0000   0.0000
     0.0000   0.0000   0.0000   0.0000   0.0000   0.0000   0.0000   0.0000
     0.0000   0.0000   0.0000   0.0000   0.0000   0.0000   0.0000   0.0000
     0.0000   0.0000   0.0000   0.0000   0.0000   0.0000   0.0000   0.0000
     0.0000   0.0000   0.0000   0.0000   0.0000   0.0000   0.0000   0.0000
     0.0000   0.0000   0.0000   0.0000   0.0000   0.0000   0.0000   0.0000
     0.0000   0.0000   0.0000   0.0000   0.0000   0.0000   0.0000   0.0000
     0.0000   0.0000   0.0000   0.0000   0.0000   0.0000   0.0000   0.0000
     0.0000   0.0000   0.0000   0.0000   0.0000   0.0000   0.0000   0.0000
     0.0000   0.0000   0.0000   0.0000   0.0000   0.0000   0.0000   0.0000
     0.0000   0.0000   0.0000   0.0000   0.0000   0.0000   0.0000   0.0000
     0.0000   0.0000   0.0000   0.0000   0.0000   0.0000   0.0000   0.0000
     0.0000   0.0000   0.0000   0.0000   0.0000   0.0000   0.0000   0.0000

          k = 0.0000 0.0000 0.0000 ( 14903 PWs)   bands (ev):

   -66.6931 -40.8960 -40.6372 -40.6372 -20.1785 -18.8130 -11.7262  -8.6012
    -8.6012  -7.7928  -7.4461  -7.4461  -6.0182  -3.0914  -3.0914  -2.8120
    -2.8120  -0.3417  -0.1572   0.4374   2.1827   2.3414   3.1230   4.8343
     4.8343   5.3418   5.9939   6.8631   6.8631   7.1576   9.4461  10.1009
    10.1791  10.1791  10.4918  10.4918  10.6170  12.3251  13.9506  14.1999
    15.2408  16.2506  17.2134  17.2134  18.8366  18.8366  18.8767  19.1604
    19.5361  19.5361  19.5850  19.6821  19.6940  19.6940  20.2280  20.2583
    20.5356  20.5356  21.4636  21.4636  21.6759  21.8699  21.8784  21.8784
    22.1981  22.1981  22.2237  22.6383  22.6383  22.8354  23.6854  24.1632
    24.3731  24.3731  24.3810  24.3810  24.6869  25.1108  25.4775  25.4775
    25.6151  25.6151  25.7170  26.6606  27.2638  27.2638  27.7868  27.7868
    27.8465  28.6195  28.7091  28.9404  28.9404  29.5850  29.5850  30.0393
    30.0730  30.8210  30.8210  31.0525  31.3974  31.3974  31.5241  31.5241
    31.6615  32.2398  33.1886  33.2758  33.7972  33.7972  33.8204  33.8204
    34.5503  34.6343  35.4804  35.4804  35.5205  35.5205  36.1174  36.6664
    36.6664  36.9714  37.3489  37.3573  37.3573  37.7747  38.1954  38.6011
    38.6011  38.7221  38.7221  38.8992  39.7582  39.7582  40.6116  40.7905
    40.7905  41.4910  41.4910  41.6279  41.7090  41.8049  41.8049  42.1218
    42.5890  42.6958  42.6959  44.7374  44.7430  44.8315  44.8315  45.4771
    45.6224  45.6224  46.3249  46.3249  46.6046  46.7978  47.2926  47.3157
    47.3157  48.4458  48.6842  49.0413  49.0413  50.0748  50.0748  50.7540
    50.7540  50.8717  51.5561  52.0586  52.0586  52.1718  52.4121  52.4121
    52.8559  52.8559  53.2026  53.8633  53.8633  54.1272  54.1293  54.8972
    55.2348  55.5365  55.6925  55.6925  56.7881  56.7881  57.5283  57.5611
    57.5611  57.9275  57.9275  58.6763  58.6906  58.9473  58.9497  58.9555

     occupation numbers 
     1.0000   1.0000   1.0000   1.0000   1.0000   1.0000   1.0000   1.0000
     1.0000   1.0000   1.0000   1.0000   1.0000   0.0000   0.0000   0.0000
     0.0000   0.0000   0.0000   0.0000   0.0000   0.0000   0.0000   0.0000
     0.0000   0.0000   0.0000   0.0000   0.0000   0.0000   0.0000   0.0000
     0.0000   0.0000   0.0000   0.0000   0.0000   0.0000   0.0000   0.0000
     0.0000   0.0000   0.0000   0.0000   0.0000   0.0000   0.0000   0.0000
     0.0000   0.0000   0.0000   0.0000   0.0000   0.0000   0.0000   0.0000
     0.0000   0.0000   0.0000   0.0000   0.0000   0.0000   0.0000   0.0000
     0.0000   0.0000   0.0000   0.0000   0.0000   0.0000   0.0000   0.0000
     0.0000   0.0000   0.0000   0.0000   0.0000   0.0000   0.0000   0.0000
     0.0000   0.0000   0.0000   0.0000   0.0000   0.0000   0.0000   0.0000
     0.0000   0.0000   0.0000   0.0000   0.0000   0.0000   0.0000   0.0000
     0.0000   0.0000   0.0000   0.0000   0.0000   0.0000   0.0000   0.0000
     0.0000   0.0000   0.0000   0.0000   0.0000   0.0000   0.0000   0.0000
     0.0000   0.0000   0.0000   0.0000   0.0000   0.0000   0.0000   0.0000
     0.0000   0.0000   0.0000   0.0000   0.0000   0.0000   0.0000   0.0000
     0.0000   0.0000   0.0000   0.0000   0.0000   0.0000   0.0000   0.0000
     0.0000   0.0000   0.0000   0.0000   0.0000   0.0000   0.0000   0.0000
     0.0000   0.0000   0.0000   0.0000   0.0000   0.0000   0.0000   0.0000
     0.0000   0.0000   0.0000   0.0000   0.0000   0.0000   0.0000   0.0000
     0.0000   0.0000   0.0000   0.0000   0.0000   0.0000   0.0000   0.0000
     0.0000   0.0000   0.0000   0.0000   0.0000   0.0000   0.0000   0.0000
     0.0000   0.0000   0.0000   0.0000   0.0000   0.0000   0.0000   0.0000
     0.0000   0.0000   0.0000   0.0000   0.0000   0.0000   0.0000   0.0000
     0.0000   0.0000   0.0000   0.0000   0.0000   0.0000   0.0000   0.0000

          k = 0.0333 0.0577 0.0074 ( 14921 PWs)   bands (ev):

   -66.6917 -40.8932 -40.6514 -40.6405 -20.1259 -18.7917 -11.6665  -8.7194
    -8.5461  -8.0882  -7.5355  -7.2220  -6.0379  -3.1746  -2.9955  -2.9716
    -2.8748  -0.2377  -0.0909   0.6640   2.2496   2.4027   3.3655   4.6217
     4.9950   5.4967   6.0181   6.4796   6.8759   7.1256   9.4436   9.7749
    10.2321  10.2986  10.4176  10.5178  11.0122  12.4985  14.2564  14.4248
    15.2915  16.1718  17.0522  17.2913  17.3193  17.8522  17.9435  18.5582
    19.1697  19.2554  19.4444  19.6274  19.7823  19.8605  20.1848  20.2142
    20.5144  20.7248  21.1364  21.3952  21.4645  21.9455  22.0384  22.1866
    22.2600  22.4773  22.8457  23.0536  23.2483  23.5558  23.6906  23.8435
    24.0239  24.1948  24.2550  24.6016  25.0330  25.2060  25.3016  25.4205
    26.0811  26.2134  26.6185  26.7125  26.9967  27.2568  27.5372  27.6856
    28.2261  28.5384  28.9409  29.1272  29.3107  29.4901  29.6651  29.9291
    30.1818  30.2717  30.8030  30.8420  31.0367  31.4368  31.8627  31.9013
    32.2033  32.6182  32.9162  33.2750  33.3565  33.6194  33.7737  33.8246
    34.7532  34.8470  35.0184  35.3217  35.4262  35.8595  36.2545  36.4448
    36.5033  36.9288  37.2870  37.3057  37.5367  38.0186  38.2453  38.3879
    38.3980  38.9464  39.3504  39.5992  39.7678  40.0672  40.3591  40.4491
    40.9544  41.2094  41.3913  41.6419  41.9692  42.1591  42.3158  42.7119
    42.9984  43.5149  43.8167  44.0264  44.0867  44.6956  44.9622  45.3476
    45.4923  45.5338  46.0106  46.4692  46.6134  46.7749  47.1839  47.6263
    47.7733  48.4822  48.7877  49.0177  49.1920  49.4908  49.7050  50.1256
    50.6472  50.7553  51.2226  51.7856  51.9574  52.0723  52.3753  52.4012
    52.9757  53.3202  53.4922  53.7486  53.8870  54.2933  54.4025  54.7440
    55.0190  55.2204  55.8094  55.9956  56.1073  56.1675  56.7226  57.0125
    57.2225  57.4977  57.6088  57.8066  58.0009  58.1500  58.4733  58.6382

     occupation numbers 
     1.0000   1.0000   1.0000   1.0000   1.0000   1.0000   1.0000   1.0000
     1.0000   1.0000   1.0000   1.0000   1.0000   0.0000   0.0000   0.0000
     0.0000   0.0000   0.0000   0.0000   0.0000   0.0000   0.0000   0.0000
     0.0000   0.0000   0.0000   0.0000   0.0000   0.0000   0.0000   0.0000
     0.0000   0.0000   0.0000   0.0000   0.0000   0.0000   0.0000   0.0000
     0.0000   0.0000   0.0000   0.0000   0.0000   0.0000   0.0000   0.0000
     0.0000   0.0000   0.0000   0.0000   0.0000   0.0000   0.0000   0.0000
     0.0000   0.0000   0.0000   0.0000   0.0000   0.0000   0.0000   0.0000
     0.0000   0.0000   0.0000   0.0000   0.0000   0.0000   0.0000   0.0000
     0.0000   0.0000   0.0000   0.0000   0.0000   0.0000   0.0000   0.0000
     0.0000   0.0000   0.0000   0.0000   0.0000   0.0000   0.0000   0.0000
     0.0000   0.0000   0.0000   0.0000   0.0000   0.0000   0.0000   0.0000
     0.0000   0.0000   0.0000   0.0000   0.0000   0.0000   0.0000   0.0000
     0.0000   0.0000   0.0000   0.0000   0.0000   0.0000   0.0000   0.0000
     0.0000   0.0000   0.0000   0.0000   0.0000   0.0000   0.0000   0.0000
     0.0000   0.0000   0.0000   0.0000   0.0000   0.0000   0.0000   0.0000
     0.0000   0.0000   0.0000   0.0000   0.0000   0.0000   0.0000   0.0000
     0.0000   0.0000   0.0000   0.0000   0.0000   0.0000   0.0000   0.0000
     0.0000   0.0000   0.0000   0.0000   0.0000   0.0000   0.0000   0.0000
     0.0000   0.0000   0.0000   0.0000   0.0000   0.0000   0.0000   0.0000
     0.0000   0.0000   0.0000   0.0000   0.0000   0.0000   0.0000   0.0000
     0.0000   0.0000   0.0000   0.0000   0.0000   0.0000   0.0000   0.0000
     0.0000   0.0000   0.0000   0.0000   0.0000   0.0000   0.0000   0.0000
     0.0000   0.0000   0.0000   0.0000   0.0000   0.0000   0.0000   0.0000
     0.0000   0.0000   0.0000   0.0000   0.0000   0.0000   0.0000   0.0000

          k = 0.0667 0.1155 0.0149 ( 14892 PWs)   bands (ev):

   -66.6876 -40.8851 -40.6915 -40.6503 -19.9722 -18.7293 -11.4990  -9.0279
    -8.5188  -8.3888  -7.8106  -6.9904  -6.1196  -3.3330  -3.3160  -3.0479
    -2.7297   0.0038   0.1049   1.2897   2.4443   2.5816   3.9531   4.2628
     5.3834   5.5891   5.7752   6.2824   6.9075   6.9869   9.1660   9.3688
     9.7497  10.3868  10.7116  10.7475  12.1407  12.9841  14.3874  15.3589
    15.4160  15.6745  15.8681  16.1175  16.3450  16.7104  17.5424  17.9577
    17.9631  18.4614  18.5246  18.6675  19.3691  19.7767  19.8129  20.1561
    20.2831  20.3674  21.0355  21.3455  21.6164  21.6262  22.1702  22.3163
    22.6011  22.7901  23.1684  23.2143  23.8406  23.9111  24.1623  24.4633
    24.5851  24.6823  24.7841  24.9149  25.3930  25.4226  26.0264  26.0566
    26.3306  26.3607  26.5317  27.1551  27.4315  27.6045  27.9179  27.9769
    28.3297  28.6591  28.9140  29.2535  29.2564  29.5138  29.7578  29.8244
    30.2029  30.2760  30.7246  31.1022  31.4080  31.5429  31.6540  31.8297
    32.4840  33.0052  33.1013  33.2205  33.2556  33.5766  33.8962  34.0465
    34.4428  34.6166  35.1181  35.2064  35.6288  35.8584  36.3684  36.5169
    36.8450  37.0257  37.1822  37.4134  37.7768  38.1994  38.2816  38.5831
    38.8145  39.3114  39.3459  39.7734  40.1122  40.6187  40.9364  41.1384
    41.2417  41.7906  41.9309  42.0822  42.3033  42.4570  42.5569  43.0526
    43.5565  43.7065  43.8702  44.2059  44.4439  44.6227  44.7651  45.0750
    45.8581  46.0042  46.1566  46.2539  46.7041  46.7335  47.0607  47.2778
    47.8347  48.0841  48.4262  48.9246  49.1848  49.2516  49.8073  50.1017
    50.4180  50.6236  51.0566  51.3596  51.6726  51.9177  52.2642  52.3776
    52.6234  52.6717  52.7567  53.0462  53.7603  53.9070  54.1248  54.2899
    54.5287  54.8300  55.0474  55.2765  55.4279  55.7921  56.0267  56.0826
    56.2816  56.4322  56.7826  56.9697  57.1912  57.2417  57.4218  57.5107

     occupation numbers 
     1.0000   1.0000   1.0000   1.0000   1.0000   1.0000   1.0000   1.0000
     1.0000   1.0000   1.0000   1.0000   1.0000   0.0000   0.0000   0.0000
     0.0000   0.0000   0.0000   0.0000   0.0000   0.0000   0.0000   0.0000
     0.0000   0.0000   0.0000   0.0000   0.0000   0.0000   0.0000   0.0000
     0.0000   0.0000   0.0000   0.0000   0.0000   0.0000   0.0000   0.0000
     0.0000   0.0000   0.0000   0.0000   0.0000   0.0000   0.0000   0.0000
     0.0000   0.0000   0.0000   0.0000   0.0000   0.0000   0.0000   0.0000
     0.0000   0.0000   0.0000   0.0000   0.0000   0.0000   0.0000   0.0000
     0.0000   0.0000   0.0000   0.0000   0.0000   0.0000   0.0000   0.0000
     0.0000   0.0000   0.0000   0.0000   0.0000   0.0000   0.0000   0.0000
     0.0000   0.0000   0.0000   0.0000   0.0000   0.0000   0.0000   0.0000
     0.0000   0.0000   0.0000   0.0000   0.0000   0.0000   0.0000   0.0000
     0.0000   0.0000   0.0000   0.0000   0.0000   0.0000   0.0000   0.0000
     0.0000   0.0000   0.0000   0.0000   0.0000   0.0000   0.0000   0.0000
     0.0000   0.0000   0.0000   0.0000   0.0000   0.0000   0.0000   0.0000
     0.0000   0.0000   0.0000   0.0000   0.0000   0.0000   0.0000   0.0000
     0.0000   0.0000   0.0000   0.0000   0.0000   0.0000   0.0000   0.0000
     0.0000   0.0000   0.0000   0.0000   0.0000   0.0000   0.0000   0.0000
     0.0000   0.0000   0.0000   0.0000   0.0000   0.0000   0.0000   0.0000
     0.0000   0.0000   0.0000   0.0000   0.0000   0.0000   0.0000   0.0000
     0.0000   0.0000   0.0000   0.0000   0.0000   0.0000   0.0000   0.0000
     0.0000   0.0000   0.0000   0.0000   0.0000   0.0000   0.0000   0.0000
     0.0000   0.0000   0.0000   0.0000   0.0000   0.0000   0.0000   0.0000
     0.0000   0.0000   0.0000   0.0000   0.0000   0.0000   0.0000   0.0000
     0.0000   0.0000   0.0000   0.0000   0.0000   0.0000   0.0000   0.0000

          k = 0.1000 0.1732 0.0223 ( 14849 PWs)   bands (ev):

   -66.6813 -40.8729 -40.7506 -40.6667 -19.7286 -18.6305 -11.2648  -9.4160
    -8.9268  -8.2611  -8.1598  -6.8735  -6.3084  -3.6430  -3.4195  -3.2682
    -2.3566   0.3356   0.4232   2.1301   2.7799   2.8605   3.9283   4.3618
     5.1477   5.6802   6.0695   6.3960   6.9729   7.0092   8.6450   8.8592
     9.5070  10.5591  11.1377  11.1653  13.4895  13.6467  14.0495  14.2086
    14.4940  14.5468  15.5119  15.7539  16.3911  16.4895  16.6880  16.8251
    17.2603  17.2776  17.5471  18.3982  19.2175  19.4092  19.7211  19.8389
    20.0801  20.3587  20.7028  20.9563  21.0157  21.0473  22.2561  22.3553
    22.5102  22.9613  23.1735  23.3696  23.6826  24.1556  24.3062  24.5423
    24.9988  25.1505  25.5874  25.8368  25.9134  26.0611  26.2754  26.6074
    26.8028  26.8769  26.9202  27.4520  27.5352  28.0536  28.3526  28.4888
    28.6017  28.7242  28.8831  29.1081  29.5373  29.7243  30.1015  30.2558
    30.5878  30.7315  31.0216  31.1893  31.3877  31.4924  31.6855  32.2565
    32.5818  32.8693  33.1790  33.2929  33.4028  34.0303  34.2377  34.5129
    34.6148  34.9749  35.3277  35.6177  35.8839  36.1754  36.3269  36.7130
    36.9930  37.1647  37.5472  37.7440  38.1631  38.3947  38.7232  38.9516
    39.5339  39.8840  40.1207  40.1925  40.4332  40.6817  40.7881  41.2257
    41.5876  42.1245  42.1722  42.4179  42.6088  42.7547  43.2211  43.3741
    43.4631  43.7562  44.0610  44.4475  44.7665  44.8799  45.1850  45.4388
    45.5939  45.8698  46.2743  46.3263  47.0299  47.1299  47.4072  47.6118
    47.6696  48.0716  48.2589  48.4455  48.8857  49.0142  49.1633  49.4712
    49.6623  49.8555  50.1638  51.1127  51.3171  51.3946  51.5399  51.8589
    51.9754  52.2605  52.6373  52.7766  53.1542  53.4338  53.6032  53.8072
    53.8999  53.9877  54.4269  54.5925  54.6372  54.8614  55.1301  55.1795
    55.3054  55.6278  55.8173  56.0430  56.1470  56.5881  56.7418  57.0938

     occupation numbers 
     1.0000   1.0000   1.0000   1.0000   1.0000   1.0000   1.0000   1.0000
     1.0000   1.0000   1.0000   1.0000   1.0000   0.0000   0.0000   0.0000
     0.0000   0.0000   0.0000   0.0000   0.0000   0.0000   0.0000   0.0000
     0.0000   0.0000   0.0000   0.0000   0.0000   0.0000   0.0000   0.0000
     0.0000   0.0000   0.0000   0.0000   0.0000   0.0000   0.0000   0.0000
     0.0000   0.0000   0.0000   0.0000   0.0000   0.0000   0.0000   0.0000
     0.0000   0.0000   0.0000   0.0000   0.0000   0.0000   0.0000   0.0000
     0.0000   0.0000   0.0000   0.0000   0.0000   0.0000   0.0000   0.0000
     0.0000   0.0000   0.0000   0.0000   0.0000   0.0000   0.0000   0.0000
     0.0000   0.0000   0.0000   0.0000   0.0000   0.0000   0.0000   0.0000
     0.0000   0.0000   0.0000   0.0000   0.0000   0.0000   0.0000   0.0000
     0.0000   0.0000   0.0000   0.0000   0.0000   0.0000   0.0000   0.0000
     0.0000   0.0000   0.0000   0.0000   0.0000   0.0000   0.0000   0.0000
     0.0000   0.0000   0.0000   0.0000   0.0000   0.0000   0.0000   0.0000
     0.0000   0.0000   0.0000   0.0000   0.0000   0.0000   0.0000   0.0000
     0.0000   0.0000   0.0000   0.0000   0.0000   0.0000   0.0000   0.0000
     0.0000   0.0000   0.0000   0.0000   0.0000   0.0000   0.0000   0.0000
     0.0000   0.0000   0.0000   0.0000   0.0000   0.0000   0.0000   0.0000
     0.0000   0.0000   0.0000   0.0000   0.0000   0.0000   0.0000   0.0000
     0.0000   0.0000   0.0000   0.0000   0.0000   0.0000   0.0000   0.0000
     0.0000   0.0000   0.0000   0.0000   0.0000   0.0000   0.0000   0.0000
     0.0000   0.0000   0.0000   0.0000   0.0000   0.0000   0.0000   0.0000
     0.0000   0.0000   0.0000   0.0000   0.0000   0.0000   0.0000   0.0000
     0.0000   0.0000   0.0000   0.0000   0.0000   0.0000   0.0000   0.0000
     0.0000   0.0000   0.0000   0.0000   0.0000   0.0000   0.0000   0.0000

          k = 0.1333 0.2309 0.0297 ( 14831 PWs)   bands (ev):

   -66.6737 -40.8579 -40.8188 -40.6897 -19.4139 -18.5027 -11.0567  -9.7363
    -9.2924  -8.8053  -7.9445  -6.8719  -6.5849  -3.8806  -3.4060  -3.3745
    -1.9626   0.7547   0.8510   2.8417   3.1871   3.3928   3.6186   4.0298
     5.4456   5.6184   6.2275   6.3989   7.1619   7.3525   7.9595   8.9790
     9.5188  10.7081  11.6575  11.7898  12.8796  12.9306  13.0460  13.1384
    14.3853  14.8901  15.0158  15.1130  15.4122  15.5483  16.2961  16.4849
    16.9780  17.5997  17.7787  18.1062  18.2948  18.5922  19.1626  19.5769
    19.8238  20.4902  20.5896  21.0874  21.2498  21.6760  21.7950  21.8216
    22.5578  22.6820  23.1250  23.2227  23.7971  23.9538  24.1696  24.3114
    24.8114  24.9202  25.2979  25.5868  25.6135  25.8376  26.6093  27.2816
    27.3621  27.4209  27.7363  27.9483  28.0364  28.4529  28.5306  28.7336
    28.9205  29.1793  29.5254  29.8333  30.1742  30.3256  30.4298  30.6207
    30.9330  31.2056  31.2942  31.5543  31.8577  32.0368  32.2845  32.7370
    33.0587  33.2326  33.3505  33.7023  34.0044  34.2790  34.3504  34.7892
    35.1495  35.3422  35.7117  36.1748  36.2663  36.5456  36.8093  37.2794
    37.3685  37.8185  38.1569  38.3135  38.5029  38.7033  38.9080  39.1640
    39.4571  39.9853  40.3448  40.5150  40.7075  40.8721  40.9672  41.5129
    41.8449  42.0111  42.1173  42.6500  43.0014  43.1070  43.3392  43.4368
    43.9905  44.1284  44.5325  44.6646  44.7748  44.9292  45.4096  45.7089
    45.7824  45.9588  46.0592  46.5785  46.6457  46.7332  47.0945  47.2227
    47.3146  47.7524  47.9380  48.2183  48.2844  48.5848  48.7601  49.2548
    49.4257  49.8930  50.0704  50.4177  50.5623  50.5748  50.8861  51.2495
    51.5485  51.7949  52.2263  52.4682  52.7008  52.8633  53.1540  53.2918
    53.4817  53.6829  53.7836  54.0254  54.1813  54.3708  54.9322  54.9719
    55.1416  55.1948  55.4843  55.6100  55.7965  56.1223  56.1923  56.2951

     occupation numbers 
     1.0000   1.0000   1.0000   1.0000   1.0000   1.0000   1.0000   1.0000
     1.0000   1.0000   1.0000   1.0000   1.0000   0.0000   0.0000   0.0000
     0.0000   0.0000   0.0000   0.0000   0.0000   0.0000   0.0000   0.0000
     0.0000   0.0000   0.0000   0.0000   0.0000   0.0000   0.0000   0.0000
     0.0000   0.0000   0.0000   0.0000   0.0000   0.0000   0.0000   0.0000
     0.0000   0.0000   0.0000   0.0000   0.0000   0.0000   0.0000   0.0000
     0.0000   0.0000   0.0000   0.0000   0.0000   0.0000   0.0000   0.0000
     0.0000   0.0000   0.0000   0.0000   0.0000   0.0000   0.0000   0.0000
     0.0000   0.0000   0.0000   0.0000   0.0000   0.0000   0.0000   0.0000
     0.0000   0.0000   0.0000   0.0000   0.0000   0.0000   0.0000   0.0000
     0.0000   0.0000   0.0000   0.0000   0.0000   0.0000   0.0000   0.0000
     0.0000   0.0000   0.0000   0.0000   0.0000   0.0000   0.0000   0.0000
     0.0000   0.0000   0.0000   0.0000   0.0000   0.0000   0.0000   0.0000
     0.0000   0.0000   0.0000   0.0000   0.0000   0.0000   0.0000   0.0000
     0.0000   0.0000   0.0000   0.0000   0.0000   0.0000   0.0000   0.0000
     0.0000   0.0000   0.0000   0.0000   0.0000   0.0000   0.0000   0.0000
     0.0000   0.0000   0.0000   0.0000   0.0000   0.0000   0.0000   0.0000
     0.0000   0.0000   0.0000   0.0000   0.0000   0.0000   0.0000   0.0000
     0.0000   0.0000   0.0000   0.0000   0.0000   0.0000   0.0000   0.0000
     0.0000   0.0000   0.0000   0.0000   0.0000   0.0000   0.0000   0.0000
     0.0000   0.0000   0.0000   0.0000   0.0000   0.0000   0.0000   0.0000
     0.0000   0.0000   0.0000   0.0000   0.0000   0.0000   0.0000   0.0000
     0.0000   0.0000   0.0000   0.0000   0.0000   0.0000   0.0000   0.0000
     0.0000   0.0000   0.0000   0.0000   0.0000   0.0000   0.0000   0.0000
     0.0000   0.0000   0.0000   0.0000   0.0000   0.0000   0.0000   0.0000

          k = 0.1667 0.2887 0.0372 ( 14847 PWs)   bands (ev):

   -66.6656 -40.8851 -40.8419 -40.7191 -19.0545 -18.3564 -11.0232  -9.8221
    -9.7249  -9.2234  -7.9363  -6.9771  -6.7729  -4.0033  -3.3860  -3.2210
    -1.6323   1.2484   1.3669   3.0459   3.3687   3.4651   3.9424   4.2115
     5.6044   5.6722   5.9021   6.4765   6.6716   7.8840   8.6365   9.0019
     9.7047  10.9491  11.6149  11.7451  11.7693  11.9652  12.5348  12.5960
    13.8333  14.0208  14.2082  14.3399  15.0732  15.8675  16.3181  16.7832
    16.7881  17.0763  17.4108  17.8304  18.1851  18.8391  18.9829  19.1801
    19.9798  20.0858  20.3821  20.9379  21.5030  21.6602  21.8131  22.3172
    22.4310  22.5656  22.7620  23.1685  23.4964  23.5815  24.0210  24.0893
    24.5117  24.6622  25.1952  25.4987  25.7070  26.1330  26.5349  26.8623
    27.1597  27.5565  27.6447  27.8005  28.0391  28.4970  28.8044  29.1922
    29.3344  29.6678  29.8836  30.2303  30.7163  30.9322  31.3278  31.4033
    31.6718  31.9241  32.0380  32.4791  32.5984  32.8597  33.2284  33.3355
    33.4133  33.8143  33.9260  34.2019  34.5067  34.8533  35.1027  35.3099
    35.5821  36.0098  36.3490  36.6648  36.7917  37.0057  37.4147  37.6890
    37.8299  38.0004  38.3264  38.4955  38.6178  38.8775  39.2372  39.5481
    39.7077  40.0520  40.4279  40.7554  40.8089  41.2689  41.5110  41.5773
    41.8368  42.0180  42.4101  42.4662  42.6964  42.7971  43.0598  43.4340
    43.7711  43.9034  44.1017  44.2887  44.7283  45.0370  45.2923  45.4021
    45.4708  45.7276  46.1524  46.2828  46.4235  46.6501  47.0657  47.3338
    47.4465  47.8702  47.9967  48.2803  48.6886  48.9699  49.0357  49.0913
    49.3059  49.4968  49.6596  49.7930  50.2667  50.6739  51.0078  51.1233
    51.2378  51.6843  51.9617  52.2283  52.3004  52.4257  52.6465  52.7066
    52.8862  53.1938  53.4228  53.7834  53.8880  54.1270  54.2695  54.4875
    54.6591  54.8655  55.0785  55.3095  55.5408  56.0001  56.0896  56.3839

     occupation numbers 
     1.0000   1.0000   1.0000   1.0000   1.0000   1.0000   1.0000   1.0000
     1.0000   1.0000   1.0000   1.0000   1.0000   0.0000   0.0000   0.0000
     0.0000   0.0000   0.0000   0.0000   0.0000   0.0000   0.0000   0.0000
     0.0000   0.0000   0.0000   0.0000   0.0000   0.0000   0.0000   0.0000
     0.0000   0.0000   0.0000   0.0000   0.0000   0.0000   0.0000   0.0000
     0.0000   0.0000   0.0000   0.0000   0.0000   0.0000   0.0000   0.0000
     0.0000   0.0000   0.0000   0.0000   0.0000   0.0000   0.0000   0.0000
     0.0000   0.0000   0.0000   0.0000   0.0000   0.0000   0.0000   0.0000
     0.0000   0.0000   0.0000   0.0000   0.0000   0.0000   0.0000   0.0000
     0.0000   0.0000   0.0000   0.0000   0.0000   0.0000   0.0000   0.0000
     0.0000   0.0000   0.0000   0.0000   0.0000   0.0000   0.0000   0.0000
     0.0000   0.0000   0.0000   0.0000   0.0000   0.0000   0.0000   0.0000
     0.0000   0.0000   0.0000   0.0000   0.0000   0.0000   0.0000   0.0000
     0.0000   0.0000   0.0000   0.0000   0.0000   0.0000   0.0000   0.0000
     0.0000   0.0000   0.0000   0.0000   0.0000   0.0000   0.0000   0.0000
     0.0000   0.0000   0.0000   0.0000   0.0000   0.0000   0.0000   0.0000
     0.0000   0.0000   0.0000   0.0000   0.0000   0.0000   0.0000   0.0000
     0.0000   0.0000   0.0000   0.0000   0.0000   0.0000   0.0000   0.0000
     0.0000   0.0000   0.0000   0.0000   0.0000   0.0000   0.0000   0.0000
     0.0000   0.0000   0.0000   0.0000   0.0000   0.0000   0.0000   0.0000
     0.0000   0.0000   0.0000   0.0000   0.0000   0.0000   0.0000   0.0000
     0.0000   0.0000   0.0000   0.0000   0.0000   0.0000   0.0000   0.0000
     0.0000   0.0000   0.0000   0.0000   0.0000   0.0000   0.0000   0.0000
     0.0000   0.0000   0.0000   0.0000   0.0000   0.0000   0.0000   0.0000
     0.0000   0.0000   0.0000   0.0000   0.0000   0.0000   0.0000   0.0000

          k = 0.2000 0.3464 0.0446 ( 14835 PWs)   bands (ev):

   -66.6579 -40.9395 -40.8269 -40.7544 -18.6853 -18.2047 -11.1446 -10.2834
    -9.7063  -9.3661  -8.2471  -7.1763  -6.7479  -3.9184  -3.2897  -3.0216
    -1.4118   1.7518   1.9384   2.5891   3.4191   3.7832   4.2990   4.5995
     5.2776   5.9558   5.9974   6.5761   6.7335   8.4242   8.5296   9.2699
     9.8605  10.5551  10.5888  10.8910  11.0426  11.9134  12.6307  12.9082
    13.0695  13.2586  13.4429  13.8447  15.1274  15.8277  16.0750  16.3164
    16.4252  16.9047  17.0707  17.8671  18.3136  18.9007  19.0554  19.1898
    19.6037  19.9288  20.1935  20.6101  21.5205  21.7918  21.9013  22.1813
    22.3970  22.6044  23.0379  23.2021  23.3401  23.5924  24.1529  24.4242
    24.8075  25.1676  25.3860  25.5403  25.6280  25.8648  26.0643  26.2984
    26.8205  27.4557  27.7922  28.0142  28.1975  28.3726  28.7648  29.2849
    29.4212  29.6225  30.1732  30.2648  30.5603  30.8534  31.5686  31.8191
    32.1385  32.6099  32.7809  33.1531  33.3778  33.5705  33.8741  34.0811
    34.4537  34.6634  35.0061  35.0849  35.1519  35.5427  36.0721  36.1543
    36.3497  36.7395  36.8821  37.0870  37.2992  37.5711  37.6253  37.8192
    38.0758  38.3370  38.4360  38.7277  38.9464  39.0895  39.4244  39.6164
    39.9680  40.1481  40.2937  40.3410  40.7108  40.8268  41.0296  41.3945
    41.5912  41.7464  42.2619  42.3530  42.5248  42.8491  43.2832  43.4140
    43.6180  43.9110  44.0045  44.1301  44.3552  44.7383  45.0063  45.3592
    45.5873  45.7329  46.1455  46.2522  46.8019  46.8496  47.1320  47.5019
    47.6765  47.7573  48.2141  48.3239  48.7376  48.9915  49.2748  49.6789
    49.7498  50.0461  50.1795  50.3281  50.4425  50.6513  50.8713  51.1043
    51.2440  51.3477  51.5898  51.8395  52.0397  52.1736  52.3942  52.5637
    52.6559  53.1268  53.2627  53.4537  53.5315  53.8366  54.1380  54.4179
    54.5373  54.5667  54.9014  55.0561  55.1645  55.4467  56.1018  56.2439

     occupation numbers 
     1.0000   1.0000   1.0000   1.0000   1.0000   1.0000   1.0000   1.0000
     1.0000   1.0000   1.0000   1.0000   1.0000   0.0000   0.0000   0.0000
     0.0000   0.0000   0.0000   0.0000   0.0000   0.0000   0.0000   0.0000
     0.0000   0.0000   0.0000   0.0000   0.0000   0.0000   0.0000   0.0000
     0.0000   0.0000   0.0000   0.0000   0.0000   0.0000   0.0000   0.0000
     0.0000   0.0000   0.0000   0.0000   0.0000   0.0000   0.0000   0.0000
     0.0000   0.0000   0.0000   0.0000   0.0000   0.0000   0.0000   0.0000
     0.0000   0.0000   0.0000   0.0000   0.0000   0.0000   0.0000   0.0000
     0.0000   0.0000   0.0000   0.0000   0.0000   0.0000   0.0000   0.0000
     0.0000   0.0000   0.0000   0.0000   0.0000   0.0000   0.0000   0.0000
     0.0000   0.0000   0.0000   0.0000   0.0000   0.0000   0.0000   0.0000
     0.0000   0.0000   0.0000   0.0000   0.0000   0.0000   0.0000   0.0000
     0.0000   0.0000   0.0000   0.0000   0.0000   0.0000   0.0000   0.0000
     0.0000   0.0000   0.0000   0.0000   0.0000   0.0000   0.0000   0.0000
     0.0000   0.0000   0.0000   0.0000   0.0000   0.0000   0.0000   0.0000
     0.0000   0.0000   0.0000   0.0000   0.0000   0.0000   0.0000   0.0000
     0.0000   0.0000   0.0000   0.0000   0.0000   0.0000   0.0000   0.0000
     0.0000   0.0000   0.0000   0.0000   0.0000   0.0000   0.0000   0.0000
     0.0000   0.0000   0.0000   0.0000   0.0000   0.0000   0.0000   0.0000
     0.0000   0.0000   0.0000   0.0000   0.0000   0.0000   0.0000   0.0000
     0.0000   0.0000   0.0000   0.0000   0.0000   0.0000   0.0000   0.0000
     0.0000   0.0000   0.0000   0.0000   0.0000   0.0000   0.0000   0.0000
     0.0000   0.0000   0.0000   0.0000   0.0000   0.0000   0.0000   0.0000
     0.0000   0.0000   0.0000   0.0000   0.0000   0.0000   0.0000   0.0000
     0.0000   0.0000   0.0000   0.0000   0.0000   0.0000   0.0000   0.0000

          k = 0.2333 0.4041 0.0520 ( 14788 PWs)   bands (ev):

   -66.6515 -40.9743 -40.8143 -40.7945 -18.3487 -18.0631 -11.2308 -10.8074
    -9.5998  -9.3356  -8.7089  -7.4455  -6.6008  -3.7167  -3.1535  -2.8626
    -1.2659   1.8087   2.4480   2.5168   3.5932   3.6975   4.8155   4.8431
     5.4545   6.2726   6.5102   6.7415   7.0503   7.6982   8.9300   8.9798
     9.4022   9.8116  10.0913  10.1498  11.0573  11.7758  11.8011  12.4460
    12.6167  12.7932  14.0824  14.3731  14.6839  15.4698  15.6917  16.0003
    16.0922  16.3447  17.1586  17.8977  18.1705  18.5011  18.7722  18.9715
    19.6191  20.2481  20.4979  20.8608  21.2824  21.5749  21.7725  22.1070
    22.6880  23.0839  23.4497  23.5849  23.7462  23.9996  24.3934  24.5064
    24.6625  25.2297  25.4326  25.6614  25.7925  25.9661  26.0910  26.3537
    26.7416  27.0187  27.5362  28.0840  28.2163  28.7194  29.1022  29.3312
    29.4165  29.6521  29.7695  30.6014  30.8407  31.0821  31.4211  31.8765
    32.1583  32.2934  32.7131  32.9762  33.4870  34.0265  34.3301  34.5599
    34.6307  35.1488  35.4899  35.6573  35.8225  36.0747  36.2860  36.6813
    36.8144  36.9730  37.2669  37.3841  37.5027  37.6808  38.0719  38.1193
    38.2613  38.5576  38.8344  38.9107  39.3744  39.4656  39.7230  39.8057
    39.9324  40.1018  40.3764  40.7009  40.7753  41.1344  41.1601  41.7536
    41.8663  42.0612  42.1246  42.2851  42.4182  42.6632  43.2675  43.6261
    43.7458  43.8976  44.1725  44.3111  44.5229  44.8274  45.2866  45.5188
    45.7120  45.9686  46.1842  46.3314  46.7575  47.2326  47.5492  47.6656
    47.7183  48.0966  48.5311  48.7245  49.1353  49.2719  49.3709  49.5731
    49.6560  50.0677  50.1594  50.3536  50.6695  50.7869  50.8575  51.0444
    51.3783  51.5959  51.7945  51.8609  51.8912  52.1439  52.3035  52.5780
    52.6934  52.8227  52.8971  53.2008  53.4869  53.6403  53.8130  53.9106
    54.2541  54.6153  54.6420  54.7886  55.0291  55.2409  55.4955  55.6713

     occupation numbers 
     1.0000   1.0000   1.0000   1.0000   1.0000   1.0000   1.0000   1.0000
     1.0000   1.0000   1.0000   1.0000   1.0000   0.0000   0.0000   0.0000
     0.0000   0.0000   0.0000   0.0000   0.0000   0.0000   0.0000   0.0000
     0.0000   0.0000   0.0000   0.0000   0.0000   0.0000   0.0000   0.0000
     0.0000   0.0000   0.0000   0.0000   0.0000   0.0000   0.0000   0.0000
     0.0000   0.0000   0.0000   0.0000   0.0000   0.0000   0.0000   0.0000
     0.0000   0.0000   0.0000   0.0000   0.0000   0.0000   0.0000   0.0000
     0.0000   0.0000   0.0000   0.0000   0.0000   0.0000   0.0000   0.0000
     0.0000   0.0000   0.0000   0.0000   0.0000   0.0000   0.0000   0.0000
     0.0000   0.0000   0.0000   0.0000   0.0000   0.0000   0.0000   0.0000
     0.0000   0.0000   0.0000   0.0000   0.0000   0.0000   0.0000   0.0000
     0.0000   0.0000   0.0000   0.0000   0.0000   0.0000   0.0000   0.0000
     0.0000   0.0000   0.0000   0.0000   0.0000   0.0000   0.0000   0.0000
     0.0000   0.0000   0.0000   0.0000   0.0000   0.0000   0.0000   0.0000
     0.0000   0.0000   0.0000   0.0000   0.0000   0.0000   0.0000   0.0000
     0.0000   0.0000   0.0000   0.0000   0.0000   0.0000   0.0000   0.0000
     0.0000   0.0000   0.0000   0.0000   0.0000   0.0000   0.0000   0.0000
     0.0000   0.0000   0.0000   0.0000   0.0000   0.0000   0.0000   0.0000
     0.0000   0.0000   0.0000   0.0000   0.0000   0.0000   0.0000   0.0000
     0.0000   0.0000   0.0000   0.0000   0.0000   0.0000   0.0000   0.0000
     0.0000   0.0000   0.0000   0.0000   0.0000   0.0000   0.0000   0.0000
     0.0000   0.0000   0.0000   0.0000   0.0000   0.0000   0.0000   0.0000
     0.0000   0.0000   0.0000   0.0000   0.0000   0.0000   0.0000   0.0000
     0.0000   0.0000   0.0000   0.0000   0.0000   0.0000   0.0000   0.0000
     0.0000   0.0000   0.0000   0.0000   0.0000   0.0000   0.0000   0.0000

          k = 0.2667 0.4619 0.0595 ( 14777 PWs)   bands (ev):

   -66.6469 -40.9855 -40.8376 -40.8052 -18.0880 -17.9486 -11.2137 -11.1682
    -9.6190  -9.1928  -9.1803  -7.7458  -6.3592  -3.7837  -2.8167  -2.8024
    -1.1124   1.4373   2.3136   3.0465   3.7406   4.2621   5.3854   5.4011
     5.7846   6.2374   6.7202   6.9313   7.3577   7.7637   8.2631   8.5457
     8.5533   9.2259   9.7958  10.2651  10.7014  11.2209  11.2778  11.8006
    12.6378  12.7087  13.7385  14.2156  14.7336  15.2469  15.2689  15.7780
    15.8345  16.7116  16.9233  18.0280  18.3338  18.9290  18.9603  19.0764
    19.6315  19.8531  19.9678  21.2078  21.3631  21.6644  21.9696  22.3854
    22.6777  23.3490  23.5303  23.6722  23.8645  24.4137  24.4800  24.7178
    24.8008  25.0815  25.2462  25.8444  26.0815  26.3932  26.5029  26.7214
    27.0213  27.2831  27.3305  27.6381  28.1737  28.6032  29.0973  29.8253
    29.9572  30.0203  30.2783  30.7417  31.0001  31.2021  31.4547  31.5148
    31.9406  32.2439  32.6365  32.8688  33.0971  33.1264  33.7928  34.1267
    34.4846  34.5445  34.7565  35.4170  35.4304  35.6556  35.7249  36.1101
    36.2828  36.7855  36.9686  37.3466  37.8195  38.1618  38.4466  38.7417
    39.1412  39.3693  39.4867  39.6194  39.8115  39.8558  40.1865  40.2368
    40.5511  40.8254  40.9994  41.0097  41.3959  41.5905  41.9001  42.0159
    42.1937  42.3299  42.4736  42.9433  43.1134  43.2647  43.4707  43.8672
    43.9913  44.3272  44.5330  44.7338  45.1307  45.4017  45.5333  45.8846
    46.0888  46.4506  46.7283  46.9746  47.1084  47.3264  47.4650  47.8159
    48.0804  48.4199  48.6804  48.8534  48.9892  49.1018  49.2641  49.5454
    49.6958  49.8448  50.0319  50.1029  50.2879  50.4909  50.7114  50.8550
    51.1407  51.2329  51.2958  51.5373  51.7253  51.9803  52.0717  52.3196
    52.4648  52.7211  52.8765  52.9986  53.1400  53.5330  53.6221  53.7481
    53.8045  53.8583  54.1241  54.1663  54.5208  54.7510  54.7899  55.0891

     occupation numbers 
     1.0000   1.0000   1.0000   1.0000   1.0000   1.0000   1.0000   1.0000
     1.0000   1.0000   1.0000   1.0000   1.0000   0.0000   0.0000   0.0000
     0.0000   0.0000   0.0000   0.0000   0.0000   0.0000   0.0000   0.0000
     0.0000   0.0000   0.0000   0.0000   0.0000   0.0000   0.0000   0.0000
     0.0000   0.0000   0.0000   0.0000   0.0000   0.0000   0.0000   0.0000
     0.0000   0.0000   0.0000   0.0000   0.0000   0.0000   0.0000   0.0000
     0.0000   0.0000   0.0000   0.0000   0.0000   0.0000   0.0000   0.0000
     0.0000   0.0000   0.0000   0.0000   0.0000   0.0000   0.0000   0.0000
     0.0000   0.0000   0.0000   0.0000   0.0000   0.0000   0.0000   0.0000
     0.0000   0.0000   0.0000   0.0000   0.0000   0.0000   0.0000   0.0000
     0.0000   0.0000   0.0000   0.0000   0.0000   0.0000   0.0000   0.0000
     0.0000   0.0000   0.0000   0.0000   0.0000   0.0000   0.0000   0.0000
     0.0000   0.0000   0.0000   0.0000   0.0000   0.0000   0.0000   0.0000
     0.0000   0.0000   0.0000   0.0000   0.0000   0.0000   0.0000   0.0000
     0.0000   0.0000   0.0000   0.0000   0.0000   0.0000   0.0000   0.0000
     0.0000   0.0000   0.0000   0.0000   0.0000   0.0000   0.0000   0.0000
     0.0000   0.0000   0.0000   0.0000   0.0000   0.0000   0.0000   0.0000
     0.0000   0.0000   0.0000   0.0000   0.0000   0.0000   0.0000   0.0000
     0.0000   0.0000   0.0000   0.0000   0.0000   0.0000   0.0000   0.0000
     0.0000   0.0000   0.0000   0.0000   0.0000   0.0000   0.0000   0.0000
     0.0000   0.0000   0.0000   0.0000   0.0000   0.0000   0.0000   0.0000
     0.0000   0.0000   0.0000   0.0000   0.0000   0.0000   0.0000   0.0000
     0.0000   0.0000   0.0000   0.0000   0.0000   0.0000   0.0000   0.0000
     0.0000   0.0000   0.0000   0.0000   0.0000   0.0000   0.0000   0.0000
     0.0000   0.0000   0.0000   0.0000   0.0000   0.0000   0.0000   0.0000

          k = 0.3000 0.5196 0.0669 ( 14788 PWs)   bands (ev):

   -66.6442 -40.9742 -40.8803 -40.8000 -17.9329 -17.8758 -11.4639 -10.9273
    -9.8780  -9.4647  -9.0044  -8.0149  -6.0940  -4.0492  -2.8640  -2.4187
    -0.9480   1.2425   1.9152   3.4709   4.3019   4.9915   5.6141   5.8864
     6.1093   6.1219   6.8761   6.9408   7.3410   7.7148   7.8722   8.2057
     8.6018   8.6079   9.6796   9.7059  10.1416  10.8389  11.2383  11.5714
    12.5516  12.8419  13.2276  13.5368  14.1945  14.5829  14.8434  15.9449
    16.6185  17.2168  17.6657  18.2448  18.4266  18.9889  19.0275  19.4081
    19.4307  19.7780  20.2516  21.1668  21.4997  21.7351  21.9009  22.5376
    22.6200  22.8365  23.0979  23.3788  23.6899  24.6188  24.7599  24.8403
    25.0726  25.6978  25.7794  25.9686  26.1138  26.3048  26.6262  27.3701
    27.5483  27.6571  27.9713  28.1962  28.5623  28.7733  29.0410  29.5083
    29.6843  29.8633  30.2792  30.6119  31.0950  31.1605  31.2009  31.2693
    31.5324  31.7363  32.1698  32.6719  32.8067  33.0089  33.2955  33.6274
    33.9052  34.2890  34.5694  35.1090  35.1438  35.3247  35.7467  35.9411
    36.1470  36.5569  36.6598  37.4119  37.4989  37.8170  38.0731  38.3167
    38.6637  38.9116  39.3250  39.7107  39.9229  40.2424  40.5837  40.7936
    41.2088  41.4267  41.5597  41.8131  41.9387  42.1649  42.7168  42.8534
    42.9369  43.1324  43.4911  43.6131  44.0362  44.0986  44.3640  44.6871
    44.8995  45.1757  45.4196  45.7020  45.7179  46.1070  46.3549  46.4055
    46.6471  46.7948  46.9119  46.9806  47.2022  47.5458  47.8086  47.9593
    48.0742  48.1317  48.2341  48.5483  48.5899  48.7888  49.0074  49.2904
    49.3620  49.5124  49.7963  49.8596  49.8695  50.0964  50.3562  50.5216
    50.6673  50.9396  50.9623  51.2217  51.3291  51.4194  51.4498  51.8512
    52.0324  52.0929  52.3156  52.4212  52.8610  52.9018  52.9875  53.2739
    53.4110  53.5876  53.8962  53.9176  54.0315  54.4739  54.9545  54.9711

     occupation numbers 
     1.0000   1.0000   1.0000   1.0000   1.0000   1.0000   1.0000   1.0000
     1.0000   1.0000   1.0000   1.0000   1.0000   0.0000   0.0000   0.0000
     0.0000   0.0000   0.0000   0.0000   0.0000   0.0000   0.0000   0.0000
     0.0000   0.0000   0.0000   0.0000   0.0000   0.0000   0.0000   0.0000
     0.0000   0.0000   0.0000   0.0000   0.0000   0.0000   0.0000   0.0000
     0.0000   0.0000   0.0000   0.0000   0.0000   0.0000   0.0000   0.0000
     0.0000   0.0000   0.0000   0.0000   0.0000   0.0000   0.0000   0.0000
     0.0000   0.0000   0.0000   0.0000   0.0000   0.0000   0.0000   0.0000
     0.0000   0.0000   0.0000   0.0000   0.0000   0.0000   0.0000   0.0000
     0.0000   0.0000   0.0000   0.0000   0.0000   0.0000   0.0000   0.0000
     0.0000   0.0000   0.0000   0.0000   0.0000   0.0000   0.0000   0.0000
     0.0000   0.0000   0.0000   0.0000   0.0000   0.0000   0.0000   0.0000
     0.0000   0.0000   0.0000   0.0000   0.0000   0.0000   0.0000   0.0000
     0.0000   0.0000   0.0000   0.0000   0.0000   0.0000   0.0000   0.0000
     0.0000   0.0000   0.0000   0.0000   0.0000   0.0000   0.0000   0.0000
     0.0000   0.0000   0.0000   0.0000   0.0000   0.0000   0.0000   0.0000
     0.0000   0.0000   0.0000   0.0000   0.0000   0.0000   0.0000   0.0000
     0.0000   0.0000   0.0000   0.0000   0.0000   0.0000   0.0000   0.0000
     0.0000   0.0000   0.0000   0.0000   0.0000   0.0000   0.0000   0.0000
     0.0000   0.0000   0.0000   0.0000   0.0000   0.0000   0.0000   0.0000
     0.0000   0.0000   0.0000   0.0000   0.0000   0.0000   0.0000   0.0000
     0.0000   0.0000   0.0000   0.0000   0.0000   0.0000   0.0000   0.0000
     0.0000   0.0000   0.0000   0.0000   0.0000   0.0000   0.0000   0.0000
     0.0000   0.0000   0.0000   0.0000   0.0000   0.0000   0.0000   0.0000
     0.0000   0.0000   0.0000   0.0000   0.0000   0.0000   0.0000   0.0000

          k = 0.3333 0.5774 0.0743 ( 14772 PWs)   bands (ev):

   -66.6434 -40.9567 -40.9074 -40.7984 -17.8857 -17.8520 -11.5453 -10.6799
   -10.1581  -9.5376  -8.9048  -8.1349  -5.9734  -4.1909  -2.9040  -2.2691
    -0.8689   1.3160   1.6215   3.6417   4.6096   5.3663   5.6963   5.9391
     6.0190   6.3757   6.9432   7.1905   7.4506   7.4613   7.4759   7.8192
     8.3873   9.1623   9.4294   9.6466   9.8558  10.5258  10.9035  11.6769
    12.5762  12.8041  13.4359  13.4483  13.7509  14.1488  14.5843  15.9966
    17.3908  17.6064  17.9066  18.0280  18.0534  18.9627  19.0538  19.5322
    19.7089  20.0405  20.6654  21.0362  21.5418  21.6090  21.8716  22.0710
    22.5347  22.6373  23.0848  23.4049  23.5068  24.4092  24.8076  24.9150
    25.0941  25.8339  26.4232  26.4963  26.6542  26.7375  26.8619  27.1441
    27.2385  28.0326  28.2489  28.5392  28.6385  28.6782  29.0436  29.2247
    29.6713  29.7185  29.7305  29.8245  30.4975  30.8180  30.8774  31.2649
    32.2056  32.3210  32.3547  32.5508  32.7819  33.0747  33.3004  33.4139
    33.4514  33.7782  34.3089  34.3415  35.3669  35.6205  35.6783  35.7852
    36.6436  36.9102  36.9808  37.0828  37.1698  37.6605  37.7230  38.4837
    38.7013  38.9265  38.9859  38.9885  39.6052  39.8702  40.8580  40.9942
    41.0409  41.3631  41.6584  42.0136  42.0358  42.5062  42.9991  43.1119
    43.5615  43.7233  43.9939  44.5299  44.7213  44.9869  44.9900  45.1814
    45.4179  45.4422  45.9629  45.9840  45.9900  46.3105  46.5290  46.5746
    46.8934  47.0580  47.2532  47.3303  47.4858  47.5242  47.7683  48.0025
    48.0032  48.3096  48.3242  48.3606  48.4774  48.4861  48.6391  48.7737
    48.9746  49.3409  49.4903  49.5944  49.7111  49.8108  49.8535  50.1538
    50.3261  50.3616  50.6086  50.8478  50.8492  51.4086  51.4570  51.5171
    51.6506  52.0860  52.2323  52.3155  52.6612  53.0257  53.0622  53.1741
    53.2917  53.6726  53.7129  54.0470  54.0693  54.1266  54.4128  54.5118

     occupation numbers 
     1.0000   1.0000   1.0000   1.0000   1.0000   1.0000   1.0000   1.0000
     1.0000   1.0000   1.0000   1.0000   1.0000   0.0000   0.0000   0.0000
     0.0000   0.0000   0.0000   0.0000   0.0000   0.0000   0.0000   0.0000
     0.0000   0.0000   0.0000   0.0000   0.0000   0.0000   0.0000   0.0000
     0.0000   0.0000   0.0000   0.0000   0.0000   0.0000   0.0000   0.0000
     0.0000   0.0000   0.0000   0.0000   0.0000   0.0000   0.0000   0.0000
     0.0000   0.0000   0.0000   0.0000   0.0000   0.0000   0.0000   0.0000
     0.0000   0.0000   0.0000   0.0000   0.0000   0.0000   0.0000   0.0000
     0.0000   0.0000   0.0000   0.0000   0.0000   0.0000   0.0000   0.0000
     0.0000   0.0000   0.0000   0.0000   0.0000   0.0000   0.0000   0.0000
     0.0000   0.0000   0.0000   0.0000   0.0000   0.0000   0.0000   0.0000
     0.0000   0.0000   0.0000   0.0000   0.0000   0.0000   0.0000   0.0000
     0.0000   0.0000   0.0000   0.0000   0.0000   0.0000   0.0000   0.0000
     0.0000   0.0000   0.0000   0.0000   0.0000   0.0000   0.0000   0.0000
     0.0000   0.0000   0.0000   0.0000   0.0000   0.0000   0.0000   0.0000
     0.0000   0.0000   0.0000   0.0000   0.0000   0.0000   0.0000   0.0000
     0.0000   0.0000   0.0000   0.0000   0.0000   0.0000   0.0000   0.0000
     0.0000   0.0000   0.0000   0.0000   0.0000   0.0000   0.0000   0.0000
     0.0000   0.0000   0.0000   0.0000   0.0000   0.0000   0.0000   0.0000
     0.0000   0.0000   0.0000   0.0000   0.0000   0.0000   0.0000   0.0000
     0.0000   0.0000   0.0000   0.0000   0.0000   0.0000   0.0000   0.0000
     0.0000   0.0000   0.0000   0.0000   0.0000   0.0000   0.0000   0.0000
     0.0000   0.0000   0.0000   0.0000   0.0000   0.0000   0.0000   0.0000
     0.0000   0.0000   0.0000   0.0000   0.0000   0.0000   0.0000   0.0000
     0.0000   0.0000   0.0000   0.0000   0.0000   0.0000   0.0000   0.0000

          k = 0.2667 0.4619 0.0595 ( 14777 PWs)   bands (ev):

   -66.6469 -40.9855 -40.8376 -40.8052 -18.0880 -17.9486 -11.2137 -11.1682
    -9.6190  -9.1928  -9.1803  -7.7458  -6.3592  -3.7837  -2.8167  -2.8024
    -1.1124   1.4373   2.3136   3.0465   3.7406   4.2621   5.3854   5.4011
     5.7846   6.2374   6.7202   6.9313   7.3577   7.7637   8.2631   8.5457
     8.5533   9.2259   9.7958  10.2651  10.7014  11.2209  11.2778  11.8006
    12.6378  12.7087  13.7385  14.2156  14.7336  15.2469  15.2689  15.7780
    15.8345  16.7116  16.9233  18.0280  18.3338  18.9290  18.9603  19.0764
    19.6315  19.8531  19.9678  21.2078  21.3631  21.6644  21.9696  22.3854
    22.6777  23.3490  23.5303  23.6722  23.8645  24.4137  24.4800  24.7178
    24.8008  25.0815  25.2462  25.8444  26.0815  26.3932  26.5029  26.7214
    27.0213  27.2831  27.3305  27.6381  28.1737  28.6032  29.0973  29.8253
    29.9572  30.0203  30.2783  30.7417  31.0001  31.2021  31.4547  31.5148
    31.9406  32.2439  32.6365  32.8688  33.0971  33.1264  33.7928  34.1267
    34.4846  34.5445  34.7565  35.4170  35.4304  35.6556  35.7249  36.1101
    36.2828  36.7855  36.9686  37.3466  37.8195  38.1618  38.4466  38.7417
    39.1412  39.3693  39.4867  39.6194  39.8115  39.8558  40.1865  40.2368
    40.5511  40.8254  40.9994  41.0097  41.3959  41.5905  41.9001  42.0159
    42.1937  42.3299  42.4736  42.9433  43.1134  43.2647  43.4707  43.8672
    43.9913  44.3272  44.5330  44.7338  45.1307  45.4017  45.5333  45.8846
    46.0888  46.4506  46.7283  46.9746  47.1084  47.3264  47.4650  47.8159
    48.0804  48.4199  48.6804  48.8534  48.9892  49.1018  49.2641  49.5454
    49.6958  49.8448  50.0319  50.1029  50.2879  50.4909  50.7114  50.8550
    51.1407  51.2329  51.2958  51.5373  51.7253  51.9803  52.0717  52.3196
    52.4648  52.7211  52.8765  52.9986  53.1400  53.5330  53.6221  53.7481
    53.8045  53.8583  54.1241  54.1663  54.5208  54.7510  54.7899  55.0891

     occupation numbers 
     1.0000   1.0000   1.0000   1.0000   1.0000   1.0000   1.0000   1.0000
     1.0000   1.0000   1.0000   1.0000   1.0000   0.0000   0.0000   0.0000
     0.0000   0.0000   0.0000   0.0000   0.0000   0.0000   0.0000   0.0000
     0.0000   0.0000   0.0000   0.0000   0.0000   0.0000   0.0000   0.0000
     0.0000   0.0000   0.0000   0.0000   0.0000   0.0000   0.0000   0.0000
     0.0000   0.0000   0.0000   0.0000   0.0000   0.0000   0.0000   0.0000
     0.0000   0.0000   0.0000   0.0000   0.0000   0.0000   0.0000   0.0000
     0.0000   0.0000   0.0000   0.0000   0.0000   0.0000   0.0000   0.0000
     0.0000   0.0000   0.0000   0.0000   0.0000   0.0000   0.0000   0.0000
     0.0000   0.0000   0.0000   0.0000   0.0000   0.0000   0.0000   0.0000
     0.0000   0.0000   0.0000   0.0000   0.0000   0.0000   0.0000   0.0000
     0.0000   0.0000   0.0000   0.0000   0.0000   0.0000   0.0000   0.0000
     0.0000   0.0000   0.0000   0.0000   0.0000   0.0000   0.0000   0.0000
     0.0000   0.0000   0.0000   0.0000   0.0000   0.0000   0.0000   0.0000
     0.0000   0.0000   0.0000   0.0000   0.0000   0.0000   0.0000   0.0000
     0.0000   0.0000   0.0000   0.0000   0.0000   0.0000   0.0000   0.0000
     0.0000   0.0000   0.0000   0.0000   0.0000   0.0000   0.0000   0.0000
     0.0000   0.0000   0.0000   0.0000   0.0000   0.0000   0.0000   0.0000
     0.0000   0.0000   0.0000   0.0000   0.0000   0.0000   0.0000   0.0000
     0.0000   0.0000   0.0000   0.0000   0.0000   0.0000   0.0000   0.0000
     0.0000   0.0000   0.0000   0.0000   0.0000   0.0000   0.0000   0.0000
     0.0000   0.0000   0.0000   0.0000   0.0000   0.0000   0.0000   0.0000
     0.0000   0.0000   0.0000   0.0000   0.0000   0.0000   0.0000   0.0000
     0.0000   0.0000   0.0000   0.0000   0.0000   0.0000   0.0000   0.0000
     0.0000   0.0000   0.0000   0.0000   0.0000   0.0000   0.0000   0.0000

          k = 0.2000 0.3464 0.0446 ( 14835 PWs)   bands (ev):

   -66.6579 -40.9395 -40.8269 -40.7544 -18.6853 -18.2047 -11.1446 -10.2834
    -9.7063  -9.3661  -8.2471  -7.1763  -6.7479  -3.9184  -3.2897  -3.0216
    -1.4118   1.7518   1.9384   2.5891   3.4191   3.7832   4.2990   4.5995
     5.2776   5.9558   5.9974   6.5761   6.7335   8.4242   8.5296   9.2699
     9.8605  10.5551  10.5888  10.8910  11.0426  11.9134  12.6307  12.9082
    13.0695  13.2586  13.4429  13.8447  15.1274  15.8277  16.0750  16.3164
    16.4252  16.9047  17.0707  17.8671  18.3136  18.9007  19.0554  19.1898
    19.6037  19.9288  20.1935  20.6101  21.5205  21.7918  21.9013  22.1813
    22.3970  22.6044  23.0379  23.2021  23.3401  23.5924  24.1529  24.4242
    24.8075  25.1676  25.3860  25.5403  25.6280  25.8648  26.0643  26.2984
    26.8205  27.4557  27.7922  28.0142  28.1975  28.3726  28.7648  29.2849
    29.4212  29.6225  30.1732  30.2648  30.5603  30.8534  31.5686  31.8191
    32.1385  32.6099  32.7809  33.1531  33.3778  33.5705  33.8741  34.0811
    34.4537  34.6634  35.0061  35.0849  35.1519  35.5427  36.0721  36.1543
    36.3497  36.7395  36.8821  37.0870  37.2992  37.5711  37.6253  37.8192
    38.0758  38.3370  38.4360  38.7277  38.9464  39.0895  39.4244  39.6164
    39.9680  40.1481  40.2937  40.3410  40.7108  40.8268  41.0296  41.3945
    41.5912  41.7464  42.2619  42.3530  42.5248  42.8491  43.2832  43.4140
    43.6180  43.9110  44.0045  44.1301  44.3552  44.7383  45.0063  45.3592
    45.5873  45.7329  46.1455  46.2522  46.8019  46.8496  47.1320  47.5019
    47.6765  47.7573  48.2141  48.3239  48.7376  48.9915  49.2748  49.6789
    49.7498  50.0461  50.1795  50.3281  50.4425  50.6513  50.8713  51.1043
    51.2440  51.3477  51.5898  51.8395  52.0397  52.1736  52.3942  52.5637
    52.6559  53.1268  53.2627  53.4537  53.5315  53.8366  54.1380  54.4179
    54.5373  54.5667  54.9014  55.0561  55.1645  55.4467  56.1018  56.2439

     occupation numbers 
     1.0000   1.0000   1.0000   1.0000   1.0000   1.0000   1.0000   1.0000
     1.0000   1.0000   1.0000   1.0000   1.0000   0.0000   0.0000   0.0000
     0.0000   0.0000   0.0000   0.0000   0.0000   0.0000   0.0000   0.0000
     0.0000   0.0000   0.0000   0.0000   0.0000   0.0000   0.0000   0.0000
     0.0000   0.0000   0.0000   0.0000   0.0000   0.0000   0.0000   0.0000
     0.0000   0.0000   0.0000   0.0000   0.0000   0.0000   0.0000   0.0000
     0.0000   0.0000   0.0000   0.0000   0.0000   0.0000   0.0000   0.0000
     0.0000   0.0000   0.0000   0.0000   0.0000   0.0000   0.0000   0.0000
     0.0000   0.0000   0.0000   0.0000   0.0000   0.0000   0.0000   0.0000
     0.0000   0.0000   0.0000   0.0000   0.0000   0.0000   0.0000   0.0000
     0.0000   0.0000   0.0000   0.0000   0.0000   0.0000   0.0000   0.0000
     0.0000   0.0000   0.0000   0.0000   0.0000   0.0000   0.0000   0.0000
     0.0000   0.0000   0.0000   0.0000   0.0000   0.0000   0.0000   0.0000
     0.0000   0.0000   0.0000   0.0000   0.0000   0.0000   0.0000   0.0000
     0.0000   0.0000   0.0000   0.0000   0.0000   0.0000   0.0000   0.0000
     0.0000   0.0000   0.0000   0.0000   0.0000   0.0000   0.0000   0.0000
     0.0000   0.0000   0.0000   0.0000   0.0000   0.0000   0.0000   0.0000
     0.0000   0.0000   0.0000   0.0000   0.0000   0.0000   0.0000   0.0000
     0.0000   0.0000   0.0000   0.0000   0.0000   0.0000   0.0000   0.0000
     0.0000   0.0000   0.0000   0.0000   0.0000   0.0000   0.0000   0.0000
     0.0000   0.0000   0.0000   0.0000   0.0000   0.0000   0.0000   0.0000
     0.0000   0.0000   0.0000   0.0000   0.0000   0.0000   0.0000   0.0000
     0.0000   0.0000   0.0000   0.0000   0.0000   0.0000   0.0000   0.0000
     0.0000   0.0000   0.0000   0.0000   0.0000   0.0000   0.0000   0.0000
     0.0000   0.0000   0.0000   0.0000   0.0000   0.0000   0.0000   0.0000

          k = 0.1333 0.2309 0.0297 ( 14831 PWs)   bands (ev):

   -66.6737 -40.8579 -40.8188 -40.6897 -19.4139 -18.5027 -11.0567  -9.7363
    -9.2924  -8.8053  -7.9445  -6.8719  -6.5849  -3.8806  -3.4060  -3.3745
    -1.9626   0.7547   0.8510   2.8417   3.1871   3.3928   3.6186   4.0298
     5.4456   5.6184   6.2275   6.3989   7.1619   7.3525   7.9595   8.9790
     9.5188  10.7081  11.6575  11.7898  12.8796  12.9306  13.0460  13.1384
    14.3853  14.8901  15.0158  15.1130  15.4122  15.5483  16.2961  16.4849
    16.9780  17.5997  17.7787  18.1062  18.2948  18.5922  19.1626  19.5769
    19.8238  20.4902  20.5896  21.0874  21.2498  21.6760  21.7950  21.8216
    22.5578  22.6820  23.1250  23.2227  23.7971  23.9538  24.1696  24.3114
    24.8114  24.9202  25.2979  25.5868  25.6135  25.8376  26.6093  27.2816
    27.3621  27.4209  27.7363  27.9483  28.0364  28.4529  28.5306  28.7336
    28.9205  29.1793  29.5254  29.8333  30.1742  30.3256  30.4298  30.6207
    30.9330  31.2056  31.2942  31.5543  31.8577  32.0368  32.2845  32.7370
    33.0587  33.2326  33.3505  33.7023  34.0044  34.2790  34.3504  34.7892
    35.1495  35.3422  35.7117  36.1748  36.2663  36.5456  36.8093  37.2794
    37.3685  37.8185  38.1569  38.3135  38.5029  38.7033  38.9080  39.1640
    39.4571  39.9853  40.3448  40.5150  40.7075  40.8721  40.9672  41.5129
    41.8449  42.0111  42.1173  42.6500  43.0014  43.1070  43.3392  43.4368
    43.9905  44.1284  44.5325  44.6646  44.7748  44.9292  45.4096  45.7089
    45.7824  45.9588  46.0592  46.5785  46.6457  46.7332  47.0945  47.2227
    47.3146  47.7524  47.9380  48.2183  48.2844  48.5848  48.7601  49.2548
    49.4257  49.8930  50.0704  50.4177  50.5623  50.5748  50.8861  51.2495
    51.5485  51.7949  52.2263  52.4682  52.7008  52.8633  53.1540  53.2918
    53.4817  53.6829  53.7836  54.0254  54.1813  54.3708  54.9322  54.9719
    55.1416  55.1948  55.4843  55.6100  55.7965  56.1223  56.1923  56.2951

     occupation numbers 
     1.0000   1.0000   1.0000   1.0000   1.0000   1.0000   1.0000   1.0000
     1.0000   1.0000   1.0000   1.0000   1.0000   0.0000   0.0000   0.0000
     0.0000   0.0000   0.0000   0.0000   0.0000   0.0000   0.0000   0.0000
     0.0000   0.0000   0.0000   0.0000   0.0000   0.0000   0.0000   0.0000
     0.0000   0.0000   0.0000   0.0000   0.0000   0.0000   0.0000   0.0000
     0.0000   0.0000   0.0000   0.0000   0.0000   0.0000   0.0000   0.0000
     0.0000   0.0000   0.0000   0.0000   0.0000   0.0000   0.0000   0.0000
     0.0000   0.0000   0.0000   0.0000   0.0000   0.0000   0.0000   0.0000
     0.0000   0.0000   0.0000   0.0000   0.0000   0.0000   0.0000   0.0000
     0.0000   0.0000   0.0000   0.0000   0.0000   0.0000   0.0000   0.0000
     0.0000   0.0000   0.0000   0.0000   0.0000   0.0000   0.0000   0.0000
     0.0000   0.0000   0.0000   0.0000   0.0000   0.0000   0.0000   0.0000
     0.0000   0.0000   0.0000   0.0000   0.0000   0.0000   0.0000   0.0000
     0.0000   0.0000   0.0000   0.0000   0.0000   0.0000   0.0000   0.0000
     0.0000   0.0000   0.0000   0.0000   0.0000   0.0000   0.0000   0.0000
     0.0000   0.0000   0.0000   0.0000   0.0000   0.0000   0.0000   0.0000
     0.0000   0.0000   0.0000   0.0000   0.0000   0.0000   0.0000   0.0000
     0.0000   0.0000   0.0000   0.0000   0.0000   0.0000   0.0000   0.0000
     0.0000   0.0000   0.0000   0.0000   0.0000   0.0000   0.0000   0.0000
     0.0000   0.0000   0.0000   0.0000   0.0000   0.0000   0.0000   0.0000
     0.0000   0.0000   0.0000   0.0000   0.0000   0.0000   0.0000   0.0000
     0.0000   0.0000   0.0000   0.0000   0.0000   0.0000   0.0000   0.0000
     0.0000   0.0000   0.0000   0.0000   0.0000   0.0000   0.0000   0.0000
     0.0000   0.0000   0.0000   0.0000   0.0000   0.0000   0.0000   0.0000
     0.0000   0.0000   0.0000   0.0000   0.0000   0.0000   0.0000   0.0000

          k = 0.0667 0.1155 0.0149 ( 14892 PWs)   bands (ev):

   -66.6876 -40.8851 -40.6915 -40.6503 -19.9722 -18.7293 -11.4990  -9.0279
    -8.5188  -8.3888  -7.8106  -6.9904  -6.1196  -3.3330  -3.3160  -3.0479
    -2.7297   0.0038   0.1049   1.2897   2.4443   2.5816   3.9531   4.2628
     5.3834   5.5891   5.7752   6.2824   6.9075   6.9869   9.1660   9.3688
     9.7497  10.3868  10.7116  10.7475  12.1407  12.9841  14.3874  15.3589
    15.4160  15.6745  15.8681  16.1175  16.3450  16.7104  17.5424  17.9577
    17.9631  18.4614  18.5246  18.6675  19.3691  19.7767  19.8129  20.1561
    20.2831  20.3674  21.0355  21.3455  21.6164  21.6262  22.1702  22.3163
    22.6011  22.7901  23.1684  23.2143  23.8406  23.9111  24.1623  24.4633
    24.5851  24.6823  24.7841  24.9149  25.3930  25.4226  26.0264  26.0566
    26.3306  26.3607  26.5317  27.1551  27.4315  27.6045  27.9179  27.9769
    28.3297  28.6591  28.9140  29.2535  29.2564  29.5138  29.7578  29.8244
    30.2029  30.2760  30.7246  31.1022  31.4080  31.5429  31.6540  31.8297
    32.4840  33.0052  33.1013  33.2205  33.2556  33.5766  33.8962  34.0465
    34.4428  34.6166  35.1181  35.2064  35.6288  35.8584  36.3684  36.5169
    36.8450  37.0257  37.1822  37.4134  37.7768  38.1994  38.2816  38.5831
    38.8145  39.3114  39.3459  39.7734  40.1122  40.6187  40.9364  41.1384
    41.2417  41.7906  41.9309  42.0822  42.3033  42.4570  42.5569  43.0526
    43.5565  43.7065  43.8702  44.2059  44.4439  44.6227  44.7651  45.0750
    45.8581  46.0042  46.1566  46.2539  46.7041  46.7335  47.0607  47.2778
    47.8347  48.0841  48.4262  48.9246  49.1848  49.2516  49.8073  50.1017
    50.4180  50.6236  51.0566  51.3596  51.6726  51.9177  52.2642  52.3776
    52.6234  52.6717  52.7567  53.0462  53.7603  53.9070  54.1248  54.2899
    54.5287  54.8300  55.0474  55.2765  55.4279  55.7921  56.0267  56.0826
    56.2816  56.4322  56.7826  56.9697  57.1912  57.2417  57.4218  57.5107

     occupation numbers 
     1.0000   1.0000   1.0000   1.0000   1.0000   1.0000   1.0000   1.0000
     1.0000   1.0000   1.0000   1.0000   1.0000   0.0000   0.0000   0.0000
     0.0000   0.0000   0.0000   0.0000   0.0000   0.0000   0.0000   0.0000
     0.0000   0.0000   0.0000   0.0000   0.0000   0.0000   0.0000   0.0000
     0.0000   0.0000   0.0000   0.0000   0.0000   0.0000   0.0000   0.0000
     0.0000   0.0000   0.0000   0.0000   0.0000   0.0000   0.0000   0.0000
     0.0000   0.0000   0.0000   0.0000   0.0000   0.0000   0.0000   0.0000
     0.0000   0.0000   0.0000   0.0000   0.0000   0.0000   0.0000   0.0000
     0.0000   0.0000   0.0000   0.0000   0.0000   0.0000   0.0000   0.0000
     0.0000   0.0000   0.0000   0.0000   0.0000   0.0000   0.0000   0.0000
     0.0000   0.0000   0.0000   0.0000   0.0000   0.0000   0.0000   0.0000
     0.0000   0.0000   0.0000   0.0000   0.0000   0.0000   0.0000   0.0000
     0.0000   0.0000   0.0000   0.0000   0.0000   0.0000   0.0000   0.0000
     0.0000   0.0000   0.0000   0.0000   0.0000   0.0000   0.0000   0.0000
     0.0000   0.0000   0.0000   0.0000   0.0000   0.0000   0.0000   0.0000
     0.0000   0.0000   0.0000   0.0000   0.0000   0.0000   0.0000   0.0000
     0.0000   0.0000   0.0000   0.0000   0.0000   0.0000   0.0000   0.0000
     0.0000   0.0000   0.0000   0.0000   0.0000   0.0000   0.0000   0.0000
     0.0000   0.0000   0.0000   0.0000   0.0000   0.0000   0.0000   0.0000
     0.0000   0.0000   0.0000   0.0000   0.0000   0.0000   0.0000   0.0000
     0.0000   0.0000   0.0000   0.0000   0.0000   0.0000   0.0000   0.0000
     0.0000   0.0000   0.0000   0.0000   0.0000   0.0000   0.0000   0.0000
     0.0000   0.0000   0.0000   0.0000   0.0000   0.0000   0.0000   0.0000
     0.0000   0.0000   0.0000   0.0000   0.0000   0.0000   0.0000   0.0000
     0.0000   0.0000   0.0000   0.0000   0.0000   0.0000   0.0000   0.0000

          k = 0.0000 0.0000 0.0000 ( 14903 PWs)   bands (ev):

   -66.6931 -40.8960 -40.6372 -40.6372 -20.1785 -18.8130 -11.7262  -8.6012
    -8.6012  -7.7928  -7.4461  -7.4461  -6.0182  -3.0914  -3.0914  -2.8120
    -2.8120  -0.3417  -0.1572   0.4374   2.1827   2.3414   3.1230   4.8343
     4.8343   5.3418   5.9939   6.8631   6.8631   7.1576   9.4461  10.1009
    10.1791  10.1791  10.4918  10.4918  10.6170  12.3251  13.9506  14.1999
    15.2408  16.2506  17.2134  17.2134  18.8366  18.8366  18.8767  19.1604
    19.5361  19.5361  19.5850  19.6821  19.6940  19.6940  20.2280  20.2583
    20.5356  20.5356  21.4636  21.4636  21.6759  21.8699  21.8784  21.8784
    22.1981  22.1981  22.2237  22.6383  22.6383  22.8354  23.6854  24.1632
    24.3731  24.3731  24.3810  24.3810  24.6869  25.1108  25.4775  25.4775
    25.6151  25.6151  25.7170  26.6606  27.2638  27.2638  27.7868  27.7868
    27.8465  28.6195  28.7091  28.9404  28.9404  29.5850  29.5850  30.0393
    30.0730  30.8210  30.8210  31.0525  31.3974  31.3974  31.5241  31.5241
    31.6615  32.2398  33.1886  33.2758  33.7972  33.7972  33.8204  33.8204
    34.5503  34.6343  35.4804  35.4804  35.5205  35.5205  36.1174  36.6664
    36.6664  36.9714  37.3489  37.3573  37.3573  37.7747  38.1954  38.6011
    38.6011  38.7221  38.7221  38.8992  39.7582  39.7582  40.6116  40.7905
    40.7905  41.4910  41.4910  41.6279  41.7090  41.8049  41.8049  42.1218
    42.5890  42.6958  42.6959  44.7374  44.7430  44.8315  44.8315  45.4771
    45.6224  45.6224  46.3249  46.3249  46.6046  46.7978  47.2926  47.3157
    47.3157  48.4458  48.6842  49.0413  49.0413  50.0748  50.0748  50.7540
    50.7540  50.8717  51.5561  52.0586  52.0586  52.1718  52.4121  52.4121
    52.8559  52.8559  53.2026  53.8633  53.8633  54.1272  54.1293  54.8972
    55.2348  55.5365  55.6925  55.6925  56.7881  56.7881  57.5283  57.5611
    57.5611  57.9275  57.9275  58.6763  58.6906  58.9473  58.9497  58.9555

     occupation numbers 
     1.0000   1.0000   1.0000   1.0000   1.0000   1.0000   1.0000   1.0000
     1.0000   1.0000   1.0000   1.0000   1.0000   0.0000   0.0000   0.0000
     0.0000   0.0000   0.0000   0.0000   0.0000   0.0000   0.0000   0.0000
     0.0000   0.0000   0.0000   0.0000   0.0000   0.0000   0.0000   0.0000
     0.0000   0.0000   0.0000   0.0000   0.0000   0.0000   0.0000   0.0000
     0.0000   0.0000   0.0000   0.0000   0.0000   0.0000   0.0000   0.0000
     0.0000   0.0000   0.0000   0.0000   0.0000   0.0000   0.0000   0.0000
     0.0000   0.0000   0.0000   0.0000   0.0000   0.0000   0.0000   0.0000
     0.0000   0.0000   0.0000   0.0000   0.0000   0.0000   0.0000   0.0000
     0.0000   0.0000   0.0000   0.0000   0.0000   0.0000   0.0000   0.0000
     0.0000   0.0000   0.0000   0.0000   0.0000   0.0000   0.0000   0.0000
     0.0000   0.0000   0.0000   0.0000   0.0000   0.0000   0.0000   0.0000
     0.0000   0.0000   0.0000   0.0000   0.0000   0.0000   0.0000   0.0000
     0.0000   0.0000   0.0000   0.0000   0.0000   0.0000   0.0000   0.0000
     0.0000   0.0000   0.0000   0.0000   0.0000   0.0000   0.0000   0.0000
     0.0000   0.0000   0.0000   0.0000   0.0000   0.0000   0.0000   0.0000
     0.0000   0.0000   0.0000   0.0000   0.0000   0.0000   0.0000   0.0000
     0.0000   0.0000   0.0000   0.0000   0.0000   0.0000   0.0000   0.0000
     0.0000   0.0000   0.0000   0.0000   0.0000   0.0000   0.0000   0.0000
     0.0000   0.0000   0.0000   0.0000   0.0000   0.0000   0.0000   0.0000
     0.0000   0.0000   0.0000   0.0000   0.0000   0.0000   0.0000   0.0000
     0.0000   0.0000   0.0000   0.0000   0.0000   0.0000   0.0000   0.0000
     0.0000   0.0000   0.0000   0.0000   0.0000   0.0000   0.0000   0.0000
     0.0000   0.0000   0.0000   0.0000   0.0000   0.0000   0.0000   0.0000
     0.0000   0.0000   0.0000   0.0000   0.0000   0.0000   0.0000   0.0000

          k =-0.0667-0.1155-0.0149 ( 14892 PWs)   bands (ev):

   -66.6876 -40.8851 -40.6915 -40.6503 -19.9722 -18.7293 -11.4990  -9.0279
    -8.5188  -8.3888  -7.8106  -6.9904  -6.1196  -3.3330  -3.3160  -3.0479
    -2.7297   0.0038   0.1049   1.2897   2.4443   2.5816   3.9531   4.2628
     5.3834   5.5891   5.7752   6.2824   6.9075   6.9869   9.1660   9.3688
     9.7497  10.3868  10.7116  10.7475  12.1407  12.9841  14.3874  15.3589
    15.4160  15.6745  15.8681  16.1175  16.3450  16.7104  17.5424  17.9577
    17.9631  18.4614  18.5246  18.6675  19.3691  19.7767  19.8129  20.1561
    20.2831  20.3674  21.0355  21.3455  21.6164  21.6262  22.1702  22.3163
    22.6011  22.7901  23.1684  23.2143  23.8406  23.9111  24.1623  24.4633
    24.5851  24.6823  24.7841  24.9149  25.3930  25.4226  26.0264  26.0566
    26.3306  26.3607  26.5317  27.1551  27.4315  27.6045  27.9179  27.9769
    28.3297  28.6591  28.9140  29.2535  29.2564  29.5138  29.7578  29.8244
    30.2029  30.2760  30.7246  31.1022  31.4080  31.5429  31.6540  31.8297
    32.4840  33.0052  33.1013  33.2205  33.2556  33.5766  33.8962  34.0465
    34.4428  34.6166  35.1181  35.2064  35.6288  35.8584  36.3684  36.5169
    36.8450  37.0257  37.1822  37.4134  37.7768  38.1994  38.2816  38.5831
    38.8145  39.3114  39.3459  39.7734  40.1122  40.6187  40.9364  41.1384
    41.2417  41.7906  41.9309  42.0822  42.3033  42.4570  42.5569  43.0526
    43.5565  43.7065  43.8702  44.2059  44.4439  44.6227  44.7651  45.0750
    45.8581  46.0042  46.1566  46.2539  46.7041  46.7335  47.0607  47.2778
    47.8347  48.0841  48.4262  48.9246  49.1848  49.2516  49.8073  50.1017
    50.4180  50.6236  51.0566  51.3596  51.6726  51.9177  52.2642  52.3776
    52.6234  52.6717  52.7567  53.0462  53.7603  53.9070  54.1248  54.2899
    54.5287  54.8300  55.0474  55.2765  55.4279  55.7921  56.0267  56.0826
    56.2816  56.4322  56.7826  56.9697  57.1912  57.2417  57.4218  57.5107

     occupation numbers 
     1.0000   1.0000   1.0000   1.0000   1.0000   1.0000   1.0000   1.0000
     1.0000   1.0000   1.0000   1.0000   1.0000   0.0000   0.0000   0.0000
     0.0000   0.0000   0.0000   0.0000   0.0000   0.0000   0.0000   0.0000
     0.0000   0.0000   0.0000   0.0000   0.0000   0.0000   0.0000   0.0000
     0.0000   0.0000   0.0000   0.0000   0.0000   0.0000   0.0000   0.0000
     0.0000   0.0000   0.0000   0.0000   0.0000   0.0000   0.0000   0.0000
     0.0000   0.0000   0.0000   0.0000   0.0000   0.0000   0.0000   0.0000
     0.0000   0.0000   0.0000   0.0000   0.0000   0.0000   0.0000   0.0000
     0.0000   0.0000   0.0000   0.0000   0.0000   0.0000   0.0000   0.0000
     0.0000   0.0000   0.0000   0.0000   0.0000   0.0000   0.0000   0.0000
     0.0000   0.0000   0.0000   0.0000   0.0000   0.0000   0.0000   0.0000
     0.0000   0.0000   0.0000   0.0000   0.0000   0.0000   0.0000   0.0000
     0.0000   0.0000   0.0000   0.0000   0.0000   0.0000   0.0000   0.0000
     0.0000   0.0000   0.0000   0.0000   0.0000   0.0000   0.0000   0.0000
     0.0000   0.0000   0.0000   0.0000   0.0000   0.0000   0.0000   0.0000
     0.0000   0.0000   0.0000   0.0000   0.0000   0.0000   0.0000   0.0000
     0.0000   0.0000   0.0000   0.0000   0.0000   0.0000   0.0000   0.0000
     0.0000   0.0000   0.0000   0.0000   0.0000   0.0000   0.0000   0.0000
     0.0000   0.0000   0.0000   0.0000   0.0000   0.0000   0.0000   0.0000
     0.0000   0.0000   0.0000   0.0000   0.0000   0.0000   0.0000   0.0000
     0.0000   0.0000   0.0000   0.0000   0.0000   0.0000   0.0000   0.0000
     0.0000   0.0000   0.0000   0.0000   0.0000   0.0000   0.0000   0.0000
     0.0000   0.0000   0.0000   0.0000   0.0000   0.0000   0.0000   0.0000
     0.0000   0.0000   0.0000   0.0000   0.0000   0.0000   0.0000   0.0000
     0.0000   0.0000   0.0000   0.0000   0.0000   0.0000   0.0000   0.0000

          k =-0.1333-0.2309-0.0297 ( 14831 PWs)   bands (ev):

   -66.6737 -40.8579 -40.8188 -40.6897 -19.4139 -18.5027 -11.0567  -9.7363
    -9.2924  -8.8053  -7.9445  -6.8719  -6.5849  -3.8806  -3.4060  -3.3745
    -1.9626   0.7547   0.8510   2.8417   3.1871   3.3928   3.6186   4.0298
     5.4456   5.6184   6.2275   6.3989   7.1619   7.3525   7.9595   8.9790
     9.5188  10.7081  11.6575  11.7898  12.8796  12.9306  13.0460  13.1384
    14.3853  14.8901  15.0158  15.1130  15.4122  15.5483  16.2961  16.4849
    16.9780  17.5997  17.7787  18.1062  18.2948  18.5922  19.1626  19.5769
    19.8238  20.4902  20.5896  21.0874  21.2498  21.6760  21.7950  21.8216
    22.5578  22.6820  23.1250  23.2227  23.7971  23.9538  24.1696  24.3114
    24.8114  24.9202  25.2979  25.5868  25.6135  25.8376  26.6093  27.2816
    27.3621  27.4209  27.7363  27.9483  28.0364  28.4529  28.5306  28.7336
    28.9205  29.1793  29.5254  29.8333  30.1742  30.3256  30.4298  30.6207
    30.9330  31.2056  31.2942  31.5543  31.8577  32.0368  32.2845  32.7370
    33.0587  33.2326  33.3505  33.7023  34.0044  34.2790  34.3504  34.7892
    35.1495  35.3422  35.7117  36.1748  36.2663  36.5456  36.8093  37.2794
    37.3685  37.8185  38.1569  38.3135  38.5029  38.7033  38.9080  39.1640
    39.4571  39.9853  40.3448  40.5150  40.7075  40.8721  40.9672  41.5129
    41.8449  42.0111  42.1173  42.6500  43.0014  43.1070  43.3392  43.4368
    43.9905  44.1284  44.5325  44.6646  44.7748  44.9292  45.4096  45.7089
    45.7824  45.9588  46.0592  46.5785  46.6457  46.7332  47.0945  47.2227
    47.3146  47.7524  47.9380  48.2183  48.2844  48.5848  48.7601  49.2548
    49.4257  49.8930  50.0704  50.4177  50.5623  50.5748  50.8861  51.2495
    51.5485  51.7949  52.2263  52.4682  52.7008  52.8633  53.1540  53.2918
    53.4817  53.6829  53.7836  54.0254  54.1813  54.3708  54.9322  54.9719
    55.1416  55.1948  55.4843  55.6100  55.7965  56.1223  56.1923  56.2951

     occupation numbers 
     1.0000   1.0000   1.0000   1.0000   1.0000   1.0000   1.0000   1.0000
     1.0000   1.0000   1.0000   1.0000   1.0000   0.0000   0.0000   0.0000
     0.0000   0.0000   0.0000   0.0000   0.0000   0.0000   0.0000   0.0000
     0.0000   0.0000   0.0000   0.0000   0.0000   0.0000   0.0000   0.0000
     0.0000   0.0000   0.0000   0.0000   0.0000   0.0000   0.0000   0.0000
     0.0000   0.0000   0.0000   0.0000   0.0000   0.0000   0.0000   0.0000
     0.0000   0.0000   0.0000   0.0000   0.0000   0.0000   0.0000   0.0000
     0.0000   0.0000   0.0000   0.0000   0.0000   0.0000   0.0000   0.0000
     0.0000   0.0000   0.0000   0.0000   0.0000   0.0000   0.0000   0.0000
     0.0000   0.0000   0.0000   0.0000   0.0000   0.0000   0.0000   0.0000
     0.0000   0.0000   0.0000   0.0000   0.0000   0.0000   0.0000   0.0000
     0.0000   0.0000   0.0000   0.0000   0.0000   0.0000   0.0000   0.0000
     0.0000   0.0000   0.0000   0.0000   0.0000   0.0000   0.0000   0.0000
     0.0000   0.0000   0.0000   0.0000   0.0000   0.0000   0.0000   0.0000
     0.0000   0.0000   0.0000   0.0000   0.0000   0.0000   0.0000   0.0000
     0.0000   0.0000   0.0000   0.0000   0.0000   0.0000   0.0000   0.0000
     0.0000   0.0000   0.0000   0.0000   0.0000   0.0000   0.0000   0.0000
     0.0000   0.0000   0.0000   0.0000   0.0000   0.0000   0.0000   0.0000
     0.0000   0.0000   0.0000   0.0000   0.0000   0.0000   0.0000   0.0000
     0.0000   0.0000   0.0000   0.0000   0.0000   0.0000   0.0000   0.0000
     0.0000   0.0000   0.0000   0.0000   0.0000   0.0000   0.0000   0.0000
     0.0000   0.0000   0.0000   0.0000   0.0000   0.0000   0.0000   0.0000
     0.0000   0.0000   0.0000   0.0000   0.0000   0.0000   0.0000   0.0000
     0.0000   0.0000   0.0000   0.0000   0.0000   0.0000   0.0000   0.0000
     0.0000   0.0000   0.0000   0.0000   0.0000   0.0000   0.0000   0.0000

          k =-0.2000-0.3464-0.0446 ( 14835 PWs)   bands (ev):

   -66.6579 -40.9395 -40.8269 -40.7544 -18.6853 -18.2047 -11.1446 -10.2834
    -9.7063  -9.3661  -8.2471  -7.1763  -6.7479  -3.9184  -3.2897  -3.0216
    -1.4118   1.7518   1.9384   2.5891   3.4191   3.7832   4.2990   4.5995
     5.2776   5.9558   5.9974   6.5761   6.7335   8.4242   8.5296   9.2699
     9.8605  10.5551  10.5888  10.8910  11.0426  11.9134  12.6307  12.9082
    13.0695  13.2586  13.4429  13.8447  15.1274  15.8277  16.0750  16.3164
    16.4252  16.9047  17.0707  17.8671  18.3136  18.9007  19.0554  19.1898
    19.6037  19.9288  20.1935  20.6101  21.5205  21.7918  21.9013  22.1813
    22.3970  22.6044  23.0379  23.2021  23.3401  23.5924  24.1529  24.4242
    24.8075  25.1676  25.3860  25.5403  25.6280  25.8648  26.0643  26.2984
    26.8205  27.4557  27.7922  28.0142  28.1975  28.3726  28.7648  29.2849
    29.4212  29.6225  30.1732  30.2648  30.5603  30.8534  31.5686  31.8191
    32.1385  32.6099  32.7809  33.1531  33.3778  33.5705  33.8741  34.0811
    34.4537  34.6634  35.0061  35.0849  35.1519  35.5427  36.0721  36.1543
    36.3497  36.7395  36.8821  37.0870  37.2992  37.5711  37.6253  37.8192
    38.0758  38.3370  38.4360  38.7277  38.9464  39.0895  39.4244  39.6164
    39.9680  40.1481  40.2937  40.3410  40.7108  40.8268  41.0296  41.3945
    41.5912  41.7464  42.2619  42.3530  42.5248  42.8491  43.2832  43.4140
    43.6180  43.9110  44.0045  44.1301  44.3552  44.7383  45.0063  45.3592
    45.5873  45.7329  46.1455  46.2522  46.8019  46.8496  47.1320  47.5019
    47.6765  47.7573  48.2141  48.3239  48.7376  48.9915  49.2748  49.6789
    49.7498  50.0461  50.1795  50.3281  50.4425  50.6513  50.8713  51.1043
    51.2440  51.3477  51.5898  51.8395  52.0397  52.1736  52.3942  52.5637
    52.6559  53.1268  53.2627  53.4537  53.5315  53.8366  54.1380  54.4179
    54.5373  54.5667  54.9014  55.0561  55.1645  55.4467  56.1018  56.2439

     occupation numbers 
     1.0000   1.0000   1.0000   1.0000   1.0000   1.0000   1.0000   1.0000
     1.0000   1.0000   1.0000   1.0000   1.0000   0.0000   0.0000   0.0000
     0.0000   0.0000   0.0000   0.0000   0.0000   0.0000   0.0000   0.0000
     0.0000   0.0000   0.0000   0.0000   0.0000   0.0000   0.0000   0.0000
     0.0000   0.0000   0.0000   0.0000   0.0000   0.0000   0.0000   0.0000
     0.0000   0.0000   0.0000   0.0000   0.0000   0.0000   0.0000   0.0000
     0.0000   0.0000   0.0000   0.0000   0.0000   0.0000   0.0000   0.0000
     0.0000   0.0000   0.0000   0.0000   0.0000   0.0000   0.0000   0.0000
     0.0000   0.0000   0.0000   0.0000   0.0000   0.0000   0.0000   0.0000
     0.0000   0.0000   0.0000   0.0000   0.0000   0.0000   0.0000   0.0000
     0.0000   0.0000   0.0000   0.0000   0.0000   0.0000   0.0000   0.0000
     0.0000   0.0000   0.0000   0.0000   0.0000   0.0000   0.0000   0.0000
     0.0000   0.0000   0.0000   0.0000   0.0000   0.0000   0.0000   0.0000
     0.0000   0.0000   0.0000   0.0000   0.0000   0.0000   0.0000   0.0000
     0.0000   0.0000   0.0000   0.0000   0.0000   0.0000   0.0000   0.0000
     0.0000   0.0000   0.0000   0.0000   0.0000   0.0000   0.0000   0.0000
     0.0000   0.0000   0.0000   0.0000   0.0000   0.0000   0.0000   0.0000
     0.0000   0.0000   0.0000   0.0000   0.0000   0.0000   0.0000   0.0000
     0.0000   0.0000   0.0000   0.0000   0.0000   0.0000   0.0000   0.0000
     0.0000   0.0000   0.0000   0.0000   0.0000   0.0000   0.0000   0.0000
     0.0000   0.0000   0.0000   0.0000   0.0000   0.0000   0.0000   0.0000
     0.0000   0.0000   0.0000   0.0000   0.0000   0.0000   0.0000   0.0000
     0.0000   0.0000   0.0000   0.0000   0.0000   0.0000   0.0000   0.0000
     0.0000   0.0000   0.0000   0.0000   0.0000   0.0000   0.0000   0.0000
     0.0000   0.0000   0.0000   0.0000   0.0000   0.0000   0.0000   0.0000

          k =-0.2667-0.4619-0.0595 ( 14777 PWs)   bands (ev):

   -66.6469 -40.9855 -40.8376 -40.8052 -18.0880 -17.9486 -11.2137 -11.1682
    -9.6190  -9.1928  -9.1803  -7.7458  -6.3592  -3.7837  -2.8167  -2.8024
    -1.1124   1.4373   2.3136   3.0465   3.7406   4.2621   5.3854   5.4011
     5.7846   6.2374   6.7202   6.9313   7.3577   7.7637   8.2631   8.5457
     8.5533   9.2259   9.7958  10.2651  10.7014  11.2209  11.2778  11.8006
    12.6378  12.7087  13.7385  14.2156  14.7336  15.2469  15.2689  15.7780
    15.8345  16.7116  16.9233  18.0280  18.3338  18.9290  18.9603  19.0764
    19.6315  19.8531  19.9678  21.2078  21.3631  21.6644  21.9696  22.3854
    22.6777  23.3490  23.5303  23.6722  23.8645  24.4137  24.4800  24.7178
    24.8008  25.0815  25.2462  25.8444  26.0815  26.3932  26.5029  26.7214
    27.0213  27.2831  27.3305  27.6381  28.1737  28.6032  29.0973  29.8253
    29.9572  30.0203  30.2783  30.7417  31.0001  31.2021  31.4547  31.5148
    31.9406  32.2439  32.6365  32.8688  33.0971  33.1264  33.7928  34.1267
    34.4846  34.5445  34.7565  35.4170  35.4304  35.6556  35.7249  36.1101
    36.2828  36.7855  36.9686  37.3466  37.8195  38.1618  38.4466  38.7417
    39.1412  39.3693  39.4867  39.6194  39.8115  39.8558  40.1865  40.2368
    40.5511  40.8254  40.9994  41.0097  41.3959  41.5905  41.9001  42.0159
    42.1937  42.3299  42.4736  42.9433  43.1134  43.2647  43.4707  43.8672
    43.9913  44.3272  44.5330  44.7338  45.1307  45.4017  45.5333  45.8846
    46.0888  46.4506  46.7283  46.9746  47.1084  47.3264  47.4650  47.8159
    48.0804  48.4199  48.6804  48.8534  48.9892  49.1018  49.2641  49.5454
    49.6958  49.8448  50.0319  50.1029  50.2879  50.4909  50.7114  50.8550
    51.1407  51.2329  51.2958  51.5373  51.7253  51.9803  52.0717  52.3196
    52.4648  52.7211  52.8765  52.9986  53.1400  53.5330  53.6221  53.7481
    53.8045  53.8583  54.1241  54.1663  54.5208  54.7510  54.7899  55.0891

     occupation numbers 
     1.0000   1.0000   1.0000   1.0000   1.0000   1.0000   1.0000   1.0000
     1.0000   1.0000   1.0000   1.0000   1.0000   0.0000   0.0000   0.0000
     0.0000   0.0000   0.0000   0.0000   0.0000   0.0000   0.0000   0.0000
     0.0000   0.0000   0.0000   0.0000   0.0000   0.0000   0.0000   0.0000
     0.0000   0.0000   0.0000   0.0000   0.0000   0.0000   0.0000   0.0000
     0.0000   0.0000   0.0000   0.0000   0.0000   0.0000   0.0000   0.0000
     0.0000   0.0000   0.0000   0.0000   0.0000   0.0000   0.0000   0.0000
     0.0000   0.0000   0.0000   0.0000   0.0000   0.0000   0.0000   0.0000
     0.0000   0.0000   0.0000   0.0000   0.0000   0.0000   0.0000   0.0000
     0.0000   0.0000   0.0000   0.0000   0.0000   0.0000   0.0000   0.0000
     0.0000   0.0000   0.0000   0.0000   0.0000   0.0000   0.0000   0.0000
     0.0000   0.0000   0.0000   0.0000   0.0000   0.0000   0.0000   0.0000
     0.0000   0.0000   0.0000   0.0000   0.0000   0.0000   0.0000   0.0000
     0.0000   0.0000   0.0000   0.0000   0.0000   0.0000   0.0000   0.0000
     0.0000   0.0000   0.0000   0.0000   0.0000   0.0000   0.0000   0.0000
     0.0000   0.0000   0.0000   0.0000   0.0000   0.0000   0.0000   0.0000
     0.0000   0.0000   0.0000   0.0000   0.0000   0.0000   0.0000   0.0000
     0.0000   0.0000   0.0000   0.0000   0.0000   0.0000   0.0000   0.0000
     0.0000   0.0000   0.0000   0.0000   0.0000   0.0000   0.0000   0.0000
     0.0000   0.0000   0.0000   0.0000   0.0000   0.0000   0.0000   0.0000
     0.0000   0.0000   0.0000   0.0000   0.0000   0.0000   0.0000   0.0000
     0.0000   0.0000   0.0000   0.0000   0.0000   0.0000   0.0000   0.0000
     0.0000   0.0000   0.0000   0.0000   0.0000   0.0000   0.0000   0.0000
     0.0000   0.0000   0.0000   0.0000   0.0000   0.0000   0.0000   0.0000
     0.0000   0.0000   0.0000   0.0000   0.0000   0.0000   0.0000   0.0000

          k =-0.3333-0.5774-0.0743 ( 14772 PWs)   bands (ev):

   -66.6434 -40.9567 -40.9074 -40.7984 -17.8857 -17.8520 -11.5453 -10.6799
   -10.1581  -9.5376  -8.9048  -8.1349  -5.9734  -4.1909  -2.9040  -2.2691
    -0.8689   1.3160   1.6215   3.6417   4.6096   5.3663   5.6963   5.9391
     6.0190   6.3757   6.9432   7.1905   7.4506   7.4613   7.4759   7.8192
     8.3873   9.1623   9.4294   9.6466   9.8558  10.5258  10.9035  11.6769
    12.5762  12.8041  13.4359  13.4483  13.7509  14.1488  14.5843  15.9966
    17.3908  17.6064  17.9066  18.0280  18.0534  18.9627  19.0538  19.5322
    19.7089  20.0405  20.6654  21.0362  21.5418  21.6090  21.8716  22.0710
    22.5347  22.6373  23.0848  23.4049  23.5068  24.4092  24.8076  24.9150
    25.0941  25.8339  26.4232  26.4963  26.6542  26.7375  26.8619  27.1441
    27.2385  28.0326  28.2489  28.5392  28.6385  28.6782  29.0436  29.2247
    29.6713  29.7185  29.7305  29.8245  30.4975  30.8180  30.8774  31.2649
    32.2056  32.3210  32.3547  32.5508  32.7819  33.0747  33.3004  33.4139
    33.4514  33.7782  34.3089  34.3415  35.3669  35.6205  35.6783  35.7852
    36.6436  36.9102  36.9808  37.0828  37.1698  37.6605  37.7230  38.4837
    38.7013  38.9265  38.9859  38.9885  39.6052  39.8702  40.8580  40.9942
    41.0409  41.3631  41.6584  42.0136  42.0358  42.5062  42.9991  43.1119
    43.5615  43.7233  43.9939  44.5299  44.7213  44.9869  44.9900  45.1814
    45.4179  45.4422  45.9629  45.9840  45.9900  46.3105  46.5290  46.5746
    46.8934  47.0580  47.2532  47.3303  47.4858  47.5242  47.7683  48.0025
    48.0032  48.3096  48.3242  48.3606  48.4774  48.4861  48.6391  48.7737
    48.9746  49.3409  49.4903  49.5944  49.7111  49.8108  49.8535  50.1538
    50.3261  50.3616  50.6086  50.8478  50.8492  51.4086  51.4570  51.5171
    51.6506  52.0860  52.2323  52.3155  52.6612  53.0257  53.0622  53.1741
    53.2917  53.6726  53.7129  54.0470  54.0693  54.1266  54.4128  54.5118

     occupation numbers 
     1.0000   1.0000   1.0000   1.0000   1.0000   1.0000   1.0000   1.0000
     1.0000   1.0000   1.0000   1.0000   1.0000   0.0000   0.0000   0.0000
     0.0000   0.0000   0.0000   0.0000   0.0000   0.0000   0.0000   0.0000
     0.0000   0.0000   0.0000   0.0000   0.0000   0.0000   0.0000   0.0000
     0.0000   0.0000   0.0000   0.0000   0.0000   0.0000   0.0000   0.0000
     0.0000   0.0000   0.0000   0.0000   0.0000   0.0000   0.0000   0.0000
     0.0000   0.0000   0.0000   0.0000   0.0000   0.0000   0.0000   0.0000
     0.0000   0.0000   0.0000   0.0000   0.0000   0.0000   0.0000   0.0000
     0.0000   0.0000   0.0000   0.0000   0.0000   0.0000   0.0000   0.0000
     0.0000   0.0000   0.0000   0.0000   0.0000   0.0000   0.0000   0.0000
     0.0000   0.0000   0.0000   0.0000   0.0000   0.0000   0.0000   0.0000
     0.0000   0.0000   0.0000   0.0000   0.0000   0.0000   0.0000   0.0000
     0.0000   0.0000   0.0000   0.0000   0.0000   0.0000   0.0000   0.0000
     0.0000   0.0000   0.0000   0.0000   0.0000   0.0000   0.0000   0.0000
     0.0000   0.0000   0.0000   0.0000   0.0000   0.0000   0.0000   0.0000
     0.0000   0.0000   0.0000   0.0000   0.0000   0.0000   0.0000   0.0000
     0.0000   0.0000   0.0000   0.0000   0.0000   0.0000   0.0000   0.0000
     0.0000   0.0000   0.0000   0.0000   0.0000   0.0000   0.0000   0.0000
     0.0000   0.0000   0.0000   0.0000   0.0000   0.0000   0.0000   0.0000
     0.0000   0.0000   0.0000   0.0000   0.0000   0.0000   0.0000   0.0000
     0.0000   0.0000   0.0000   0.0000   0.0000   0.0000   0.0000   0.0000
     0.0000   0.0000   0.0000   0.0000   0.0000   0.0000   0.0000   0.0000
     0.0000   0.0000   0.0000   0.0000   0.0000   0.0000   0.0000   0.0000
     0.0000   0.0000   0.0000   0.0000   0.0000   0.0000   0.0000   0.0000
     0.0000   0.0000   0.0000   0.0000   0.0000   0.0000   0.0000   0.0000

          k =-0.2667-0.4619-0.0743 ( 14778 PWs)   bands (ev):

   -66.6469 -40.9855 -40.8376 -40.8052 -18.0880 -17.9486 -11.2137 -11.1682
    -9.6190  -9.1928  -9.1803  -7.7458  -6.3592  -3.7837  -2.8167  -2.8024
    -1.1124   1.4373   2.3136   3.0465   3.7406   4.2621   5.3854   5.4011
     5.7846   6.2374   6.7202   6.9313   7.3577   7.7638   8.2631   8.5457
     8.5533   9.2259   9.7956  10.2651  10.7016  11.2213  11.2776  11.8005
    12.6370  12.7089  13.7388  14.2163  14.7330  15.2466  15.2712  15.7814
    15.8268  16.7142  16.9229  18.0326  18.3314  18.9453  18.9567  19.0651
    19.6106  19.8684  19.9542  21.2869  21.3459  21.6856  21.8878  22.3872
    22.6678  23.3563  23.5608  23.7189  23.7975  24.4380  24.4516  24.6938
    24.8083  25.0861  25.2449  25.9825  26.0415  26.3124  26.4995  26.7374
    27.0221  27.3104  27.3279  27.6648  28.0365  28.6460  29.0674  29.8983
    29.9866  30.0105  30.2923  30.7302  31.0179  31.2012  31.4814  31.5513
    31.8121  32.2482  32.6431  32.8767  33.0956  33.1202  33.7094  34.1552
    34.5090  34.5452  34.7455  35.4974  35.5443  35.6359  35.6490  36.1632
    36.1767  36.8242  37.0813  37.1798  37.7939  38.1822  38.5560  38.7078
    39.1065  39.4256  39.4279  39.5275  39.8128  39.8477  40.1738  40.2437
    40.5340  40.8800  41.0244  41.1302  41.3098  41.6236  41.8917  42.0300
    42.1947  42.3098  42.4359  42.9821  43.0620  43.3683  43.4484  43.7888
    43.9829  44.4279  44.4804  44.6935  45.0754  45.4716  45.5137  46.1013
    46.1174  46.2480  46.7011  46.9932  47.0729  47.3489  47.3607  47.9153
    47.9946  48.4137  48.7625  48.8333  49.0360  49.0443  49.3160  49.5759
    49.7978  49.8264  49.9520  50.0958  50.2402  50.6687  50.7368  50.7945
    51.0754  51.1993  51.2845  51.5258  51.7714  51.9948  52.0298  52.3148
    52.4308  52.7126  52.9660  52.9864  53.0419  53.5790  53.5947  53.7769
    53.7835  53.8299  54.0993  54.1929  54.4981  54.7535  54.7911  55.1064

     occupation numbers 
     1.0000   1.0000   1.0000   1.0000   1.0000   1.0000   1.0000   1.0000
     1.0000   1.0000   1.0000   1.0000   1.0000   0.0000   0.0000   0.0000
     0.0000   0.0000   0.0000   0.0000   0.0000   0.0000   0.0000   0.0000
     0.0000   0.0000   0.0000   0.0000   0.0000   0.0000   0.0000   0.0000
     0.0000   0.0000   0.0000   0.0000   0.0000   0.0000   0.0000   0.0000
     0.0000   0.0000   0.0000   0.0000   0.0000   0.0000   0.0000   0.0000
     0.0000   0.0000   0.0000   0.0000   0.0000   0.0000   0.0000   0.0000
     0.0000   0.0000   0.0000   0.0000   0.0000   0.0000   0.0000   0.0000
     0.0000   0.0000   0.0000   0.0000   0.0000   0.0000   0.0000   0.0000
     0.0000   0.0000   0.0000   0.0000   0.0000   0.0000   0.0000   0.0000
     0.0000   0.0000   0.0000   0.0000   0.0000   0.0000   0.0000   0.0000
     0.0000   0.0000   0.0000   0.0000   0.0000   0.0000   0.0000   0.0000
     0.0000   0.0000   0.0000   0.0000   0.0000   0.0000   0.0000   0.0000
     0.0000   0.0000   0.0000   0.0000   0.0000   0.0000   0.0000   0.0000
     0.0000   0.0000   0.0000   0.0000   0.0000   0.0000   0.0000   0.0000
     0.0000   0.0000   0.0000   0.0000   0.0000   0.0000   0.0000   0.0000
     0.0000   0.0000   0.0000   0.0000   0.0000   0.0000   0.0000   0.0000
     0.0000   0.0000   0.0000   0.0000   0.0000   0.0000   0.0000   0.0000
     0.0000   0.0000   0.0000   0.0000   0.0000   0.0000   0.0000   0.0000
     0.0000   0.0000   0.0000   0.0000   0.0000   0.0000   0.0000   0.0000
     0.0000   0.0000   0.0000   0.0000   0.0000   0.0000   0.0000   0.0000
     0.0000   0.0000   0.0000   0.0000   0.0000   0.0000   0.0000   0.0000
     0.0000   0.0000   0.0000   0.0000   0.0000   0.0000   0.0000   0.0000
     0.0000   0.0000   0.0000   0.0000   0.0000   0.0000   0.0000   0.0000
     0.0000   0.0000   0.0000   0.0000   0.0000   0.0000   0.0000   0.0000

          k =-0.2000-0.3464-0.0743 ( 14814 PWs)   bands (ev):

   -66.6579 -40.9395 -40.8269 -40.7544 -18.6853 -18.2047 -11.1446 -10.2834
    -9.7063  -9.3661  -8.2471  -7.1763  -6.7479  -3.9184  -3.2897  -3.0216
    -1.4118   1.7518   1.9384   2.5891   3.4190   3.7832   4.2989   4.5995
     5.2777   5.9557   5.9975   6.5761   6.7339   8.4239   8.5286   9.2709
     9.8614  10.5554  10.5884  10.8910  11.0430  11.9093  12.6317  12.9042
    13.0716  13.2581  13.4559  13.8365  15.1308  15.8140  16.0791  16.3247
    16.4242  16.9011  17.1067  17.7711  18.3312  18.9031  19.0538  19.1966
    19.8134  20.0355  20.1444  20.3175  21.4756  21.8471  21.8780  22.1648
    22.3908  22.6139  23.0940  23.2866  23.3243  23.7724  24.0894  24.3495
    24.7434  25.1910  25.3466  25.5420  25.5941  25.8152  26.0634  26.3266
    26.7702  27.4522  27.8373  28.1476  28.1835  28.3975  28.6976  29.3701
    29.4607  29.7664  29.8227  30.5124  30.5639  30.7537  31.2148  32.0239
    32.0582  32.7168  32.8738  33.1656  33.5143  33.5185  33.8356  33.8591
    34.4530  34.6192  35.0217  35.1376  35.4112  35.4119  36.0801  36.1372
    36.5708  36.6996  36.9293  37.0222  37.2962  37.3251  37.5756  37.8004
    38.0847  38.3829  38.4497  38.8125  38.9067  38.9551  39.5082  39.6677
    39.9356  40.1844  40.2469  40.4517  40.7532  40.7887  41.1819  41.2274
    41.3220  41.7811  42.2819  42.4751  42.6250  42.8162  43.2174  43.5032
    43.6069  43.7737  44.1286  44.2946  44.3008  44.7922  45.0450  45.3330
    45.6611  45.7742  45.9721  46.1755  46.7180  46.8984  47.1450  47.1475
    47.5370  47.9531  48.0047  48.5885  48.6172  48.9156  49.5532  49.7253
    49.8851  50.0434  50.1719  50.3422  50.4616  50.8541  51.0252  51.0887
    51.1286  51.5956  51.6316  51.8541  51.9113  51.9754  52.1240  52.5755
    52.9557  53.0758  53.1240  53.2923  53.7172  53.7502  54.0082  54.1926
    54.3891  54.7596  54.8970  55.0058  55.1465  55.3828  55.9254  56.1917

     occupation numbers 
     1.0000   1.0000   1.0000   1.0000   1.0000   1.0000   1.0000   1.0000
     1.0000   1.0000   1.0000   1.0000   1.0000   0.0000   0.0000   0.0000
     0.0000   0.0000   0.0000   0.0000   0.0000   0.0000   0.0000   0.0000
     0.0000   0.0000   0.0000   0.0000   0.0000   0.0000   0.0000   0.0000
     0.0000   0.0000   0.0000   0.0000   0.0000   0.0000   0.0000   0.0000
     0.0000   0.0000   0.0000   0.0000   0.0000   0.0000   0.0000   0.0000
     0.0000   0.0000   0.0000   0.0000   0.0000   0.0000   0.0000   0.0000
     0.0000   0.0000   0.0000   0.0000   0.0000   0.0000   0.0000   0.0000
     0.0000   0.0000   0.0000   0.0000   0.0000   0.0000   0.0000   0.0000
     0.0000   0.0000   0.0000   0.0000   0.0000   0.0000   0.0000   0.0000
     0.0000   0.0000   0.0000   0.0000   0.0000   0.0000   0.0000   0.0000
     0.0000   0.0000   0.0000   0.0000   0.0000   0.0000   0.0000   0.0000
     0.0000   0.0000   0.0000   0.0000   0.0000   0.0000   0.0000   0.0000
     0.0000   0.0000   0.0000   0.0000   0.0000   0.0000   0.0000   0.0000
     0.0000   0.0000   0.0000   0.0000   0.0000   0.0000   0.0000   0.0000
     0.0000   0.0000   0.0000   0.0000   0.0000   0.0000   0.0000   0.0000
     0.0000   0.0000   0.0000   0.0000   0.0000   0.0000   0.0000   0.0000
     0.0000   0.0000   0.0000   0.0000   0.0000   0.0000   0.0000   0.0000
     0.0000   0.0000   0.0000   0.0000   0.0000   0.0000   0.0000   0.0000
     0.0000   0.0000   0.0000   0.0000   0.0000   0.0000   0.0000   0.0000
     0.0000   0.0000   0.0000   0.0000   0.0000   0.0000   0.0000   0.0000
     0.0000   0.0000   0.0000   0.0000   0.0000   0.0000   0.0000   0.0000
     0.0000   0.0000   0.0000   0.0000   0.0000   0.0000   0.0000   0.0000
     0.0000   0.0000   0.0000   0.0000   0.0000   0.0000   0.0000   0.0000
     0.0000   0.0000   0.0000   0.0000   0.0000   0.0000   0.0000   0.0000

          k =-0.1333-0.2309-0.0743 ( 14850 PWs)   bands (ev):

   -66.6737 -40.8579 -40.8188 -40.6897 -19.4139 -18.5027 -11.0567  -9.7363
    -9.2924  -8.8053  -7.9445  -6.8719  -6.5849  -3.8806  -3.4060  -3.3745
    -1.9626   0.7547   0.8510   2.8418   3.1869   3.3929   3.6186   4.0297
     5.4453   5.6186   6.2287   6.3985   7.1619   7.3501   7.9607   8.9784
     9.5239  10.7052  11.6337  11.8065  12.8796  12.9306  13.0463  13.1375
    14.4899  14.8525  15.0161  15.0804  15.4129  15.5187  16.1155  16.4789
    17.1311  17.7518  17.8314  18.0874  18.3633  18.6113  19.1518  19.3146
    19.5802  20.4896  20.6735  21.0524  21.2557  21.7624  21.7892  22.4046
    22.5690  22.7411  23.0155  23.2513  23.2635  23.9600  24.1165  24.2887
    24.7778  24.8217  25.2861  25.6431  25.7565  25.8115  27.0291  27.2055
    27.2826  27.4743  27.7487  27.8857  28.1867  28.2942  28.6477  28.6517
    28.9791  29.0577  29.5624  29.5861  30.1271  30.2237  30.5970  30.6331
    30.9895  31.1109  31.3320  31.7445  31.7645  31.9057  32.4306  32.4793
    33.0970  33.3127  33.3536  33.7730  34.1572  34.2509  34.5252  34.6751
    35.1099  35.7549  35.8493  35.9859  36.1866  36.3814  36.6502  36.9112
    37.4591  37.8424  37.9564  38.2941  38.3663  38.7077  38.8681  39.3977
    39.7786  40.0401  40.3362  40.6575  40.8218  41.0656  41.1432  41.2302
    41.7799  42.1972  42.2087  42.4336  42.7755  42.8276  43.3583  43.7087
    43.8569  44.1907  44.2820  44.6576  44.7940  45.1506  45.1736  45.4712
    45.6282  45.8807  46.1736  46.2816  46.7878  47.0174  47.0318  47.4786
    47.5063  47.7589  47.9785  48.5108  48.6147  48.9502  49.0273  49.0839
    49.4022  49.4817  49.6730  50.0289  50.5711  50.7353  50.8115  51.3339
    51.3822  51.5808  52.0889  52.1913  52.5615  53.0669  53.3879  53.4658
    53.4984  53.5556  53.9061  54.1775  54.2398  54.4751  54.9080  54.9299
    55.0579  55.3237  55.3579  55.6759  55.9856  56.1042  56.3578  56.4160

     occupation numbers 
     1.0000   1.0000   1.0000   1.0000   1.0000   1.0000   1.0000   1.0000
     1.0000   1.0000   1.0000   1.0000   1.0000   0.0000   0.0000   0.0000
     0.0000   0.0000   0.0000   0.0000   0.0000   0.0000   0.0000   0.0000
     0.0000   0.0000   0.0000   0.0000   0.0000   0.0000   0.0000   0.0000
     0.0000   0.0000   0.0000   0.0000   0.0000   0.0000   0.0000   0.0000
     0.0000   0.0000   0.0000   0.0000   0.0000   0.0000   0.0000   0.0000
     0.0000   0.0000   0.0000   0.0000   0.0000   0.0000   0.0000   0.0000
     0.0000   0.0000   0.0000   0.0000   0.0000   0.0000   0.0000   0.0000
     0.0000   0.0000   0.0000   0.0000   0.0000   0.0000   0.0000   0.0000
     0.0000   0.0000   0.0000   0.0000   0.0000   0.0000   0.0000   0.0000
     0.0000   0.0000   0.0000   0.0000   0.0000   0.0000   0.0000   0.0000
     0.0000   0.0000   0.0000   0.0000   0.0000   0.0000   0.0000   0.0000
     0.0000   0.0000   0.0000   0.0000   0.0000   0.0000   0.0000   0.0000
     0.0000   0.0000   0.0000   0.0000   0.0000   0.0000   0.0000   0.0000
     0.0000   0.0000   0.0000   0.0000   0.0000   0.0000   0.0000   0.0000
     0.0000   0.0000   0.0000   0.0000   0.0000   0.0000   0.0000   0.0000
     0.0000   0.0000   0.0000   0.0000   0.0000   0.0000   0.0000   0.0000
     0.0000   0.0000   0.0000   0.0000   0.0000   0.0000   0.0000   0.0000
     0.0000   0.0000   0.0000   0.0000   0.0000   0.0000   0.0000   0.0000
     0.0000   0.0000   0.0000   0.0000   0.0000   0.0000   0.0000   0.0000
     0.0000   0.0000   0.0000   0.0000   0.0000   0.0000   0.0000   0.0000
     0.0000   0.0000   0.0000   0.0000   0.0000   0.0000   0.0000   0.0000
     0.0000   0.0000   0.0000   0.0000   0.0000   0.0000   0.0000   0.0000
     0.0000   0.0000   0.0000   0.0000   0.0000   0.0000   0.0000   0.0000
     0.0000   0.0000   0.0000   0.0000   0.0000   0.0000   0.0000   0.0000

          k =-0.0667-0.1155-0.0743 ( 14884 PWs)   bands (ev):

   -66.6876 -40.8851 -40.6915 -40.6503 -19.9722 -18.7293 -11.4990  -9.0279
    -8.5188  -8.3888  -7.8106  -6.9904  -6.1196  -3.3330  -3.3160  -3.0479
    -2.7297   0.0039   0.1049   1.2897   2.4447   2.5811   3.9531   4.2629
     5.3836   5.5887   5.7774   6.2790   6.9073   6.9877   9.1643   9.3801
     9.7524  10.3866  10.7098  10.7209  12.1309  13.0683  14.4829  14.9393
    15.3735  15.6554  15.9846  16.1732  16.3440  17.1282  17.8760  17.9232
    17.9939  18.1301  18.5005  18.5336  18.6730  19.7754  19.8105  20.2636
    20.3647  21.0337  21.1665  21.3750  21.6177  21.6235  22.3033  22.3298
    22.5091  22.6442  22.8697  23.2328  23.4035  23.9117  23.9678  24.4700
    24.5920  24.6987  24.9037  25.1325  25.4162  25.5991  26.0525  26.2684
    26.3222  26.3375  26.6878  27.1307  27.4814  27.6448  27.8174  27.9386
    28.2679  28.4757  28.9671  29.0288  29.2866  29.3026  29.7505  29.7616
    30.2555  30.4024  30.9260  31.1975  31.3065  31.3350  31.6755  31.9415
    32.6353  32.9682  33.0871  33.2682  33.4975  33.5533  33.7103  34.1997
    34.5727  34.7708  34.8377  34.9456  35.9261  35.9266  36.1504  36.3982
    36.8063  36.8284  37.2158  37.6802  37.6863  37.8578  38.0629  38.2139
    39.0164  39.3908  39.9175  40.3640  40.4254  40.6979  40.8541  41.2384
    41.3644  41.5199  41.6511  41.6526  42.3026  42.4299  42.7731  42.8709
    43.4172  43.5513  43.6683  44.1032  44.5561  44.6703  45.0930  45.1045
    45.5310  45.7244  45.9726  46.4833  46.5080  47.0745  47.3135  47.5808
    48.1626  48.2027  48.9008  49.0385  49.0542  49.2291  49.4358  49.6871
    50.3684  50.5668  51.1426  51.1927  51.3176  51.7805  52.0623  52.3507
    52.3525  52.9468  53.2074  53.3067  53.6252  53.7418  53.9930  54.5422
    54.6243  54.6540  54.8011  55.3283  55.5978  56.0255  56.0432  56.2087
    56.3652  56.4689  56.5601  56.8974  57.1045  57.5110  57.5660  57.7404

     occupation numbers 
     1.0000   1.0000   1.0000   1.0000   1.0000   1.0000   1.0000   1.0000
     1.0000   1.0000   1.0000   1.0000   1.0000   0.0000   0.0000   0.0000
     0.0000   0.0000   0.0000   0.0000   0.0000   0.0000   0.0000   0.0000
     0.0000   0.0000   0.0000   0.0000   0.0000   0.0000   0.0000   0.0000
     0.0000   0.0000   0.0000   0.0000   0.0000   0.0000   0.0000   0.0000
     0.0000   0.0000   0.0000   0.0000   0.0000   0.0000   0.0000   0.0000
     0.0000   0.0000   0.0000   0.0000   0.0000   0.0000   0.0000   0.0000
     0.0000   0.0000   0.0000   0.0000   0.0000   0.0000   0.0000   0.0000
     0.0000   0.0000   0.0000   0.0000   0.0000   0.0000   0.0000   0.0000
     0.0000   0.0000   0.0000   0.0000   0.0000   0.0000   0.0000   0.0000
     0.0000   0.0000   0.0000   0.0000   0.0000   0.0000   0.0000   0.0000
     0.0000   0.0000   0.0000   0.0000   0.0000   0.0000   0.0000   0.0000
     0.0000   0.0000   0.0000   0.0000   0.0000   0.0000   0.0000   0.0000
     0.0000   0.0000   0.0000   0.0000   0.0000   0.0000   0.0000   0.0000
     0.0000   0.0000   0.0000   0.0000   0.0000   0.0000   0.0000   0.0000
     0.0000   0.0000   0.0000   0.0000   0.0000   0.0000   0.0000   0.0000
     0.0000   0.0000   0.0000   0.0000   0.0000   0.0000   0.0000   0.0000
     0.0000   0.0000   0.0000   0.0000   0.0000   0.0000   0.0000   0.0000
     0.0000   0.0000   0.0000   0.0000   0.0000   0.0000   0.0000   0.0000
     0.0000   0.0000   0.0000   0.0000   0.0000   0.0000   0.0000   0.0000
     0.0000   0.0000   0.0000   0.0000   0.0000   0.0000   0.0000   0.0000
     0.0000   0.0000   0.0000   0.0000   0.0000   0.0000   0.0000   0.0000
     0.0000   0.0000   0.0000   0.0000   0.0000   0.0000   0.0000   0.0000
     0.0000   0.0000   0.0000   0.0000   0.0000   0.0000   0.0000   0.0000
     0.0000   0.0000   0.0000   0.0000   0.0000   0.0000   0.0000   0.0000

          k = 0.0000 0.0000-0.0743 ( 14910 PWs)   bands (ev):

   -66.6931 -40.8960 -40.6372 -40.6372 -20.1785 -18.8130 -11.7262  -8.6012
    -8.6012  -7.7928  -7.4461  -7.4461  -6.0182  -3.0914  -3.0914  -2.8120
    -2.8120  -0.3416  -0.1572   0.4374   2.1832   2.3408   3.1230   4.8343
     4.8343   5.3445   5.9893   6.8631   6.8631   7.1594   9.4661  10.0896
    10.1791  10.1791  10.4918  10.4918  10.5800  12.3934  13.9371  14.4005
    14.6777  17.2134  17.2134  17.2726  17.6334  18.8366  18.8366  19.3117
    19.4469  19.5361  19.5361  19.6940  19.6940  19.9063  20.2387  20.5356
    20.5356  20.8918  21.4634  21.4634  21.6622  21.8787  21.8787  22.0790
    22.1977  22.1977  22.3665  22.4327  22.6387  22.6387  22.8964  24.3236
    24.3743  24.3743  24.3794  24.3794  24.6841  25.2364  25.4800  25.4800
    25.6119  25.6119  26.3398  26.6539  27.2704  27.2704  27.7790  27.7790
    27.9936  28.1038  28.7185  28.9539  28.9539  29.2405  29.5616  29.5616
    30.8408  30.8408  30.8820  30.9249  31.3379  31.3379  31.5981  31.5981
    31.6615  32.5222  32.9135  33.5768  33.5768  33.9823  34.0601  34.0709
    34.0709  34.7734  34.9955  34.9955  36.1311  36.3806  36.3806  36.3961
    36.4113  36.4113  36.8327  37.2997  37.2997  37.6674  37.9045  37.9045
    38.7686  39.2847  39.2847  39.9925  40.1394  40.1394  40.5924  40.5924
    40.6319  41.2177  41.3029  41.3401  41.3401  41.5754  41.5754  42.1218
    42.7490  42.9949  42.9949  43.9483  44.5792  44.5792  44.9002  45.4771
    45.7939  45.7939  46.6088  46.6754  46.6754  46.8330  46.8330  47.0529
    48.0146  48.6747  49.0400  49.4350  49.4350  50.1774  50.2268  50.2268
    50.4487  50.4487  50.5840  51.6726  51.6726  51.9064  51.9064  52.0319
    53.0341  53.3984  53.3984  53.8547  54.7432  54.7432  54.8972  55.5978
    55.5978  55.5987  55.8485  56.3778  56.5580  56.5580  56.6014  57.0048
    57.0048  57.3721  57.4341  57.4341  58.5969  58.6763  58.9858  58.9858

     occupation numbers 
     1.0000   1.0000   1.0000   1.0000   1.0000   1.0000   1.0000   1.0000
     1.0000   1.0000   1.0000   1.0000   1.0000   0.0000   0.0000   0.0000
     0.0000   0.0000   0.0000   0.0000   0.0000   0.0000   0.0000   0.0000
     0.0000   0.0000   0.0000   0.0000   0.0000   0.0000   0.0000   0.0000
     0.0000   0.0000   0.0000   0.0000   0.0000   0.0000   0.0000   0.0000
     0.0000   0.0000   0.0000   0.0000   0.0000   0.0000   0.0000   0.0000
     0.0000   0.0000   0.0000   0.0000   0.0000   0.0000   0.0000   0.0000
     0.0000   0.0000   0.0000   0.0000   0.0000   0.0000   0.0000   0.0000
     0.0000   0.0000   0.0000   0.0000   0.0000   0.0000   0.0000   0.0000
     0.0000   0.0000   0.0000   0.0000   0.0000   0.0000   0.0000   0.0000
     0.0000   0.0000   0.0000   0.0000   0.0000   0.0000   0.0000   0.0000
     0.0000   0.0000   0.0000   0.0000   0.0000   0.0000   0.0000   0.0000
     0.0000   0.0000   0.0000   0.0000   0.0000   0.0000   0.0000   0.0000
     0.0000   0.0000   0.0000   0.0000   0.0000   0.0000   0.0000   0.0000
     0.0000   0.0000   0.0000   0.0000   0.0000   0.0000   0.0000   0.0000
     0.0000   0.0000   0.0000   0.0000   0.0000   0.0000   0.0000   0.0000
     0.0000   0.0000   0.0000   0.0000   0.0000   0.0000   0.0000   0.0000
     0.0000   0.0000   0.0000   0.0000   0.0000   0.0000   0.0000   0.0000
     0.0000   0.0000   0.0000   0.0000   0.0000   0.0000   0.0000   0.0000
     0.0000   0.0000   0.0000   0.0000   0.0000   0.0000   0.0000   0.0000
     0.0000   0.0000   0.0000   0.0000   0.0000   0.0000   0.0000   0.0000
     0.0000   0.0000   0.0000   0.0000   0.0000   0.0000   0.0000   0.0000
     0.0000   0.0000   0.0000   0.0000   0.0000   0.0000   0.0000   0.0000
     0.0000   0.0000   0.0000   0.0000   0.0000   0.0000   0.0000   0.0000
     0.0000   0.0000   0.0000   0.0000   0.0000   0.0000   0.0000   0.0000

          k = 0.0667 0.1155-0.0743 ( 14884 PWs)   bands (ev):

   -66.6876 -40.8851 -40.6915 -40.6503 -19.9722 -18.7293 -11.4990  -9.0279
    -8.5188  -8.3888  -7.8106  -6.9904  -6.1196  -3.3330  -3.3160  -3.0479
    -2.7297   0.0039   0.1049   1.2897   2.4447   2.5811   3.9531   4.2629
     5.3836   5.5887   5.7774   6.2790   6.9073   6.9877   9.1643   9.3801
     9.7524  10.3866  10.7098  10.7209  12.1309  13.0683  14.4829  14.9393
    15.3735  15.6554  15.9846  16.1732  16.3440  17.1282  17.8760  17.9232
    17.9939  18.1301  18.5005  18.5336  18.6730  19.7754  19.8105  20.2636
    20.3647  21.0337  21.1665  21.3750  21.6177  21.6235  22.3033  22.3298
    22.5091  22.6442  22.8697  23.2328  23.4035  23.9117  23.9678  24.4700
    24.5920  24.6987  24.9037  25.1325  25.4162  25.5991  26.0525  26.2684
    26.3222  26.3375  26.6878  27.1307  27.4814  27.6448  27.8174  27.9386
    28.2679  28.4757  28.9671  29.0288  29.2866  29.3026  29.7505  29.7616
    30.2555  30.4024  30.9260  31.1975  31.3065  31.3350  31.6755  31.9415
    32.6353  32.9682  33.0871  33.2682  33.4975  33.5533  33.7103  34.1997
    34.5727  34.7708  34.8377  34.9456  35.9261  35.9266  36.1504  36.3982
    36.8063  36.8284  37.2158  37.6802  37.6863  37.8578  38.0629  38.2139
    39.0164  39.3908  39.9175  40.3640  40.4254  40.6979  40.8541  41.2384
    41.3644  41.5199  41.6511  41.6526  42.3026  42.4299  42.7731  42.8709
    43.4172  43.5513  43.6683  44.1032  44.5561  44.6703  45.0930  45.1045
    45.5310  45.7244  45.9726  46.4833  46.5080  47.0745  47.3135  47.5808
    48.1626  48.2027  48.9008  49.0385  49.0542  49.2291  49.4358  49.6871
    50.3684  50.5668  51.1426  51.1927  51.3176  51.7805  52.0623  52.3507
    52.3525  52.9468  53.2074  53.3067  53.6252  53.7418  53.9930  54.5422
    54.6243  54.6540  54.8011  55.3283  55.5978  56.0255  56.0432  56.2087
    56.3652  56.4689  56.5601  56.8974  57.1045  57.5110  57.5660  57.7404

     occupation numbers 
     1.0000   1.0000   1.0000   1.0000   1.0000   1.0000   1.0000   1.0000
     1.0000   1.0000   1.0000   1.0000   1.0000   0.0000   0.0000   0.0000
     0.0000   0.0000   0.0000   0.0000   0.0000   0.0000   0.0000   0.0000
     0.0000   0.0000   0.0000   0.0000   0.0000   0.0000   0.0000   0.0000
     0.0000   0.0000   0.0000   0.0000   0.0000   0.0000   0.0000   0.0000
     0.0000   0.0000   0.0000   0.0000   0.0000   0.0000   0.0000   0.0000
     0.0000   0.0000   0.0000   0.0000   0.0000   0.0000   0.0000   0.0000
     0.0000   0.0000   0.0000   0.0000   0.0000   0.0000   0.0000   0.0000
     0.0000   0.0000   0.0000   0.0000   0.0000   0.0000   0.0000   0.0000
     0.0000   0.0000   0.0000   0.0000   0.0000   0.0000   0.0000   0.0000
     0.0000   0.0000   0.0000   0.0000   0.0000   0.0000   0.0000   0.0000
     0.0000   0.0000   0.0000   0.0000   0.0000   0.0000   0.0000   0.0000
     0.0000   0.0000   0.0000   0.0000   0.0000   0.0000   0.0000   0.0000
     0.0000   0.0000   0.0000   0.0000   0.0000   0.0000   0.0000   0.0000
     0.0000   0.0000   0.0000   0.0000   0.0000   0.0000   0.0000   0.0000
     0.0000   0.0000   0.0000   0.0000   0.0000   0.0000   0.0000   0.0000
     0.0000   0.0000   0.0000   0.0000   0.0000   0.0000   0.0000   0.0000
     0.0000   0.0000   0.0000   0.0000   0.0000   0.0000   0.0000   0.0000
     0.0000   0.0000   0.0000   0.0000   0.0000   0.0000   0.0000   0.0000
     0.0000   0.0000   0.0000   0.0000   0.0000   0.0000   0.0000   0.0000
     0.0000   0.0000   0.0000   0.0000   0.0000   0.0000   0.0000   0.0000
     0.0000   0.0000   0.0000   0.0000   0.0000   0.0000   0.0000   0.0000
     0.0000   0.0000   0.0000   0.0000   0.0000   0.0000   0.0000   0.0000
     0.0000   0.0000   0.0000   0.0000   0.0000   0.0000   0.0000   0.0000
     0.0000   0.0000   0.0000   0.0000   0.0000   0.0000   0.0000   0.0000

          k = 0.1333 0.2309-0.0743 ( 14850 PWs)   bands (ev):

   -66.6737 -40.8579 -40.8188 -40.6897 -19.4139 -18.5027 -11.0567  -9.7363
    -9.2924  -8.8053  -7.9445  -6.8719  -6.5849  -3.8806  -3.4060  -3.3745
    -1.9626   0.7547   0.8510   2.8418   3.1869   3.3929   3.6186   4.0297
     5.4453   5.6186   6.2287   6.3985   7.1619   7.3501   7.9607   8.9784
     9.5239  10.7052  11.6337  11.8065  12.8796  12.9306  13.0463  13.1375
    14.4899  14.8525  15.0161  15.0804  15.4129  15.5187  16.1155  16.4789
    17.1311  17.7518  17.8314  18.0874  18.3633  18.6113  19.1518  19.3146
    19.5802  20.4896  20.6735  21.0524  21.2557  21.7624  21.7892  22.4046
    22.5690  22.7411  23.0155  23.2513  23.2635  23.9600  24.1165  24.2887
    24.7778  24.8217  25.2861  25.6431  25.7565  25.8115  27.0291  27.2055
    27.2826  27.4743  27.7487  27.8857  28.1867  28.2942  28.6477  28.6517
    28.9791  29.0577  29.5624  29.5861  30.1271  30.2237  30.5970  30.6331
    30.9895  31.1109  31.3320  31.7445  31.7645  31.9057  32.4306  32.4793
    33.0970  33.3127  33.3536  33.7730  34.1572  34.2509  34.5252  34.6751
    35.1099  35.7549  35.8493  35.9859  36.1866  36.3814  36.6502  36.9112
    37.4591  37.8424  37.9564  38.2941  38.3663  38.7077  38.8681  39.3977
    39.7786  40.0401  40.3362  40.6575  40.8218  41.0656  41.1432  41.2302
    41.7799  42.1972  42.2087  42.4336  42.7755  42.8276  43.3583  43.7087
    43.8569  44.1907  44.2820  44.6576  44.7940  45.1506  45.1736  45.4712
    45.6282  45.8807  46.1736  46.2816  46.7878  47.0174  47.0318  47.4786
    47.5063  47.7589  47.9785  48.5108  48.6147  48.9502  49.0273  49.0839
    49.4022  49.4817  49.6730  50.0289  50.5711  50.7353  50.8115  51.3339
    51.3822  51.5808  52.0889  52.1913  52.5615  53.0669  53.3879  53.4658
    53.4984  53.5556  53.9061  54.1775  54.2398  54.4751  54.9080  54.9299
    55.0579  55.3237  55.3579  55.6759  55.9856  56.1042  56.3578  56.4160

     occupation numbers 
     1.0000   1.0000   1.0000   1.0000   1.0000   1.0000   1.0000   1.0000
     1.0000   1.0000   1.0000   1.0000   1.0000   0.0000   0.0000   0.0000
     0.0000   0.0000   0.0000   0.0000   0.0000   0.0000   0.0000   0.0000
     0.0000   0.0000   0.0000   0.0000   0.0000   0.0000   0.0000   0.0000
     0.0000   0.0000   0.0000   0.0000   0.0000   0.0000   0.0000   0.0000
     0.0000   0.0000   0.0000   0.0000   0.0000   0.0000   0.0000   0.0000
     0.0000   0.0000   0.0000   0.0000   0.0000   0.0000   0.0000   0.0000
     0.0000   0.0000   0.0000   0.0000   0.0000   0.0000   0.0000   0.0000
     0.0000   0.0000   0.0000   0.0000   0.0000   0.0000   0.0000   0.0000
     0.0000   0.0000   0.0000   0.0000   0.0000   0.0000   0.0000   0.0000
     0.0000   0.0000   0.0000   0.0000   0.0000   0.0000   0.0000   0.0000
     0.0000   0.0000   0.0000   0.0000   0.0000   0.0000   0.0000   0.0000
     0.0000   0.0000   0.0000   0.0000   0.0000   0.0000   0.0000   0.0000
     0.0000   0.0000   0.0000   0.0000   0.0000   0.0000   0.0000   0.0000
     0.0000   0.0000   0.0000   0.0000   0.0000   0.0000   0.0000   0.0000
     0.0000   0.0000   0.0000   0.0000   0.0000   0.0000   0.0000   0.0000
     0.0000   0.0000   0.0000   0.0000   0.0000   0.0000   0.0000   0.0000
     0.0000   0.0000   0.0000   0.0000   0.0000   0.0000   0.0000   0.0000
     0.0000   0.0000   0.0000   0.0000   0.0000   0.0000   0.0000   0.0000
     0.0000   0.0000   0.0000   0.0000   0.0000   0.0000   0.0000   0.0000
     0.0000   0.0000   0.0000   0.0000   0.0000   0.0000   0.0000   0.0000
     0.0000   0.0000   0.0000   0.0000   0.0000   0.0000   0.0000   0.0000
     0.0000   0.0000   0.0000   0.0000   0.0000   0.0000   0.0000   0.0000
     0.0000   0.0000   0.0000   0.0000   0.0000   0.0000   0.0000   0.0000
     0.0000   0.0000   0.0000   0.0000   0.0000   0.0000   0.0000   0.0000

          k = 0.2000 0.3464-0.0743 ( 14814 PWs)   bands (ev):

   -66.6579 -40.9395 -40.8269 -40.7544 -18.6853 -18.2047 -11.1446 -10.2834
    -9.7063  -9.3661  -8.2471  -7.1763  -6.7479  -3.9184  -3.2897  -3.0216
    -1.4118   1.7518   1.9384   2.5891   3.4190   3.7832   4.2989   4.5995
     5.2777   5.9557   5.9975   6.5761   6.7339   8.4239   8.5286   9.2709
     9.8614  10.5554  10.5884  10.8910  11.0430  11.9093  12.6317  12.9042
    13.0716  13.2581  13.4559  13.8365  15.1308  15.8140  16.0791  16.3247
    16.4242  16.9011  17.1067  17.7711  18.3312  18.9031  19.0538  19.1966
    19.8134  20.0355  20.1444  20.3175  21.4756  21.8471  21.8780  22.1648
    22.3908  22.6139  23.0940  23.2866  23.3243  23.7724  24.0894  24.3495
    24.7434  25.1910  25.3466  25.5420  25.5941  25.8152  26.0634  26.3266
    26.7702  27.4522  27.8373  28.1476  28.1835  28.3975  28.6976  29.3701
    29.4607  29.7664  29.8227  30.5124  30.5639  30.7537  31.2148  32.0239
    32.0582  32.7168  32.8738  33.1656  33.5143  33.5185  33.8356  33.8591
    34.4530  34.6192  35.0217  35.1376  35.4112  35.4119  36.0801  36.1372
    36.5708  36.6996  36.9293  37.0222  37.2962  37.3251  37.5756  37.8004
    38.0847  38.3829  38.4497  38.8125  38.9067  38.9551  39.5082  39.6677
    39.9356  40.1844  40.2469  40.4517  40.7532  40.7887  41.1819  41.2274
    41.3220  41.7811  42.2819  42.4751  42.6250  42.8162  43.2174  43.5032
    43.6069  43.7737  44.1286  44.2946  44.3008  44.7922  45.0450  45.3330
    45.6611  45.7742  45.9721  46.1755  46.7180  46.8984  47.1450  47.1475
    47.5370  47.9531  48.0047  48.5885  48.6172  48.9156  49.5532  49.7253
    49.8851  50.0434  50.1719  50.3422  50.4616  50.8541  51.0252  51.0887
    51.1286  51.5956  51.6316  51.8541  51.9113  51.9754  52.1240  52.5755
    52.9557  53.0758  53.1240  53.2923  53.7172  53.7502  54.0082  54.1926
    54.3891  54.7596  54.8970  55.0058  55.1465  55.3828  55.9254  56.1917

     occupation numbers 
     1.0000   1.0000   1.0000   1.0000   1.0000   1.0000   1.0000   1.0000
     1.0000   1.0000   1.0000   1.0000   1.0000   0.0000   0.0000   0.0000
     0.0000   0.0000   0.0000   0.0000   0.0000   0.0000   0.0000   0.0000
     0.0000   0.0000   0.0000   0.0000   0.0000   0.0000   0.0000   0.0000
     0.0000   0.0000   0.0000   0.0000   0.0000   0.0000   0.0000   0.0000
     0.0000   0.0000   0.0000   0.0000   0.0000   0.0000   0.0000   0.0000
     0.0000   0.0000   0.0000   0.0000   0.0000   0.0000   0.0000   0.0000
     0.0000   0.0000   0.0000   0.0000   0.0000   0.0000   0.0000   0.0000
     0.0000   0.0000   0.0000   0.0000   0.0000   0.0000   0.0000   0.0000
     0.0000   0.0000   0.0000   0.0000   0.0000   0.0000   0.0000   0.0000
     0.0000   0.0000   0.0000   0.0000   0.0000   0.0000   0.0000   0.0000
     0.0000   0.0000   0.0000   0.0000   0.0000   0.0000   0.0000   0.0000
     0.0000   0.0000   0.0000   0.0000   0.0000   0.0000   0.0000   0.0000
     0.0000   0.0000   0.0000   0.0000   0.0000   0.0000   0.0000   0.0000
     0.0000   0.0000   0.0000   0.0000   0.0000   0.0000   0.0000   0.0000
     0.0000   0.0000   0.0000   0.0000   0.0000   0.0000   0.0000   0.0000
     0.0000   0.0000   0.0000   0.0000   0.0000   0.0000   0.0000   0.0000
     0.0000   0.0000   0.0000   0.0000   0.0000   0.0000   0.0000   0.0000
     0.0000   0.0000   0.0000   0.0000   0.0000   0.0000   0.0000   0.0000
     0.0000   0.0000   0.0000   0.0000   0.0000   0.0000   0.0000   0.0000
     0.0000   0.0000   0.0000   0.0000   0.0000   0.0000   0.0000   0.0000
     0.0000   0.0000   0.0000   0.0000   0.0000   0.0000   0.0000   0.0000
     0.0000   0.0000   0.0000   0.0000   0.0000   0.0000   0.0000   0.0000
     0.0000   0.0000   0.0000   0.0000   0.0000   0.0000   0.0000   0.0000
     0.0000   0.0000   0.0000   0.0000   0.0000   0.0000   0.0000   0.0000

          k = 0.2667 0.4619-0.0743 ( 14778 PWs)   bands (ev):

   -66.6469 -40.9855 -40.8376 -40.8052 -18.0880 -17.9486 -11.2137 -11.1682
    -9.6190  -9.1928  -9.1803  -7.7458  -6.3592  -3.7837  -2.8167  -2.8024
    -1.1124   1.4373   2.3136   3.0465   3.7406   4.2621   5.3854   5.4011
     5.7846   6.2374   6.7202   6.9313   7.3577   7.7638   8.2631   8.5457
     8.5533   9.2259   9.7956  10.2651  10.7016  11.2213  11.2776  11.8005
    12.6370  12.7089  13.7388  14.2163  14.7330  15.2466  15.2712  15.7814
    15.8268  16.7142  16.9229  18.0326  18.3314  18.9453  18.9567  19.0651
    19.6106  19.8684  19.9542  21.2869  21.3459  21.6856  21.8878  22.3872
    22.6678  23.3563  23.5608  23.7189  23.7975  24.4380  24.4516  24.6938
    24.8083  25.0861  25.2449  25.9825  26.0415  26.3124  26.4995  26.7374
    27.0221  27.3104  27.3279  27.6648  28.0365  28.6460  29.0674  29.8983
    29.9866  30.0105  30.2923  30.7302  31.0179  31.2012  31.4814  31.5513
    31.8121  32.2482  32.6431  32.8767  33.0956  33.1202  33.7094  34.1552
    34.5090  34.5452  34.7455  35.4974  35.5443  35.6359  35.6490  36.1632
    36.1767  36.8242  37.0813  37.1798  37.7939  38.1822  38.5560  38.7078
    39.1065  39.4256  39.4279  39.5275  39.8128  39.8477  40.1738  40.2437
    40.5340  40.8800  41.0244  41.1302  41.3098  41.6236  41.8917  42.0300
    42.1947  42.3098  42.4359  42.9821  43.0620  43.3683  43.4484  43.7888
    43.9829  44.4279  44.4804  44.6935  45.0754  45.4716  45.5137  46.1013
    46.1174  46.2480  46.7011  46.9932  47.0729  47.3489  47.3607  47.9153
    47.9946  48.4137  48.7625  48.8333  49.0360  49.0443  49.3160  49.5759
    49.7978  49.8264  49.9520  50.0958  50.2402  50.6687  50.7368  50.7945
    51.0754  51.1993  51.2845  51.5258  51.7714  51.9948  52.0298  52.3148
    52.4308  52.7126  52.9660  52.9864  53.0419  53.5790  53.5947  53.7769
    53.7835  53.8299  54.0993  54.1929  54.4981  54.7535  54.7911  55.1064

     occupation numbers 
     1.0000   1.0000   1.0000   1.0000   1.0000   1.0000   1.0000   1.0000
     1.0000   1.0000   1.0000   1.0000   1.0000   0.0000   0.0000   0.0000
     0.0000   0.0000   0.0000   0.0000   0.0000   0.0000   0.0000   0.0000
     0.0000   0.0000   0.0000   0.0000   0.0000   0.0000   0.0000   0.0000
     0.0000   0.0000   0.0000   0.0000   0.0000   0.0000   0.0000   0.0000
     0.0000   0.0000   0.0000   0.0000   0.0000   0.0000   0.0000   0.0000
     0.0000   0.0000   0.0000   0.0000   0.0000   0.0000   0.0000   0.0000
     0.0000   0.0000   0.0000   0.0000   0.0000   0.0000   0.0000   0.0000
     0.0000   0.0000   0.0000   0.0000   0.0000   0.0000   0.0000   0.0000
     0.0000   0.0000   0.0000   0.0000   0.0000   0.0000   0.0000   0.0000
     0.0000   0.0000   0.0000   0.0000   0.0000   0.0000   0.0000   0.0000
     0.0000   0.0000   0.0000   0.0000   0.0000   0.0000   0.0000   0.0000
     0.0000   0.0000   0.0000   0.0000   0.0000   0.0000   0.0000   0.0000
     0.0000   0.0000   0.0000   0.0000   0.0000   0.0000   0.0000   0.0000
     0.0000   0.0000   0.0000   0.0000   0.0000   0.0000   0.0000   0.0000
     0.0000   0.0000   0.0000   0.0000   0.0000   0.0000   0.0000   0.0000
     0.0000   0.0000   0.0000   0.0000   0.0000   0.0000   0.0000   0.0000
     0.0000   0.0000   0.0000   0.0000   0.0000   0.0000   0.0000   0.0000
     0.0000   0.0000   0.0000   0.0000   0.0000   0.0000   0.0000   0.0000
     0.0000   0.0000   0.0000   0.0000   0.0000   0.0000   0.0000   0.0000
     0.0000   0.0000   0.0000   0.0000   0.0000   0.0000   0.0000   0.0000
     0.0000   0.0000   0.0000   0.0000   0.0000   0.0000   0.0000   0.0000
     0.0000   0.0000   0.0000   0.0000   0.0000   0.0000   0.0000   0.0000
     0.0000   0.0000   0.0000   0.0000   0.0000   0.0000   0.0000   0.0000
     0.0000   0.0000   0.0000   0.0000   0.0000   0.0000   0.0000   0.0000

          k = 0.3333 0.5774-0.0743 ( 14772 PWs)   bands (ev):

   -66.6434 -40.9567 -40.9074 -40.7984 -17.8857 -17.8520 -11.5453 -10.6799
   -10.1581  -9.5376  -8.9048  -8.1349  -5.9734  -4.1909  -2.9040  -2.2691
    -0.8689   1.3160   1.6215   3.6417   4.6096   5.3663   5.6963   5.9391
     6.0190   6.3757   6.9432   7.1905   7.4506   7.4613   7.4759   7.8192
     8.3873   9.1623   9.4294   9.6466   9.8558  10.5258  10.9035  11.6769
    12.5762  12.8041  13.4359  13.4483  13.7509  14.1488  14.5843  15.9966
    17.3908  17.6064  17.9066  18.0280  18.0534  18.9627  19.0538  19.5322
    19.7089  20.0405  20.6654  21.0362  21.5418  21.6090  21.8716  22.0710
    22.5347  22.6373  23.0848  23.4049  23.5068  24.4092  24.8076  24.9150
    25.0941  25.8339  26.4232  26.4963  26.6542  26.7375  26.8619  27.1441
    27.2385  28.0326  28.2489  28.5392  28.6385  28.6782  29.0436  29.2247
    29.6713  29.7185  29.7305  29.8245  30.4975  30.8180  30.8774  31.2649
    32.2056  32.3210  32.3547  32.5508  32.7819  33.0747  33.3004  33.4139
    33.4514  33.7782  34.3089  34.3415  35.3669  35.6205  35.6783  35.7852
    36.6436  36.9102  36.9808  37.0828  37.1698  37.6605  37.7230  38.4837
    38.7013  38.9265  38.9859  38.9885  39.6052  39.8702  40.8580  40.9942
    41.0409  41.3631  41.6584  42.0136  42.0358  42.5062  42.9991  43.1119
    43.5615  43.7233  43.9939  44.5299  44.7213  44.9869  44.9900  45.1814
    45.4179  45.4422  45.9629  45.9840  45.9900  46.3105  46.5290  46.5746
    46.8934  47.0580  47.2532  47.3303  47.4858  47.5242  47.7683  48.0025
    48.0032  48.3096  48.3242  48.3606  48.4774  48.4861  48.6391  48.7737
    48.9746  49.3409  49.4903  49.5944  49.7111  49.8108  49.8535  50.1538
    50.3261  50.3616  50.6086  50.8478  50.8492  51.4086  51.4570  51.5171
    51.6506  52.0860  52.2323  52.3155  52.6612  53.0257  53.0622  53.1741
    53.2917  53.6726  53.7129  54.0470  54.0693  54.1266  54.4128  54.5118

     occupation numbers 
     1.0000   1.0000   1.0000   1.0000   1.0000   1.0000   1.0000   1.0000
     1.0000   1.0000   1.0000   1.0000   1.0000   0.0000   0.0000   0.0000
     0.0000   0.0000   0.0000   0.0000   0.0000   0.0000   0.0000   0.0000
     0.0000   0.0000   0.0000   0.0000   0.0000   0.0000   0.0000   0.0000
     0.0000   0.0000   0.0000   0.0000   0.0000   0.0000   0.0000   0.0000
     0.0000   0.0000   0.0000   0.0000   0.0000   0.0000   0.0000   0.0000
     0.0000   0.0000   0.0000   0.0000   0.0000   0.0000   0.0000   0.0000
     0.0000   0.0000   0.0000   0.0000   0.0000   0.0000   0.0000   0.0000
     0.0000   0.0000   0.0000   0.0000   0.0000   0.0000   0.0000   0.0000
     0.0000   0.0000   0.0000   0.0000   0.0000   0.0000   0.0000   0.0000
     0.0000   0.0000   0.0000   0.0000   0.0000   0.0000   0.0000   0.0000
     0.0000   0.0000   0.0000   0.0000   0.0000   0.0000   0.0000   0.0000
     0.0000   0.0000   0.0000   0.0000   0.0000   0.0000   0.0000   0.0000
     0.0000   0.0000   0.0000   0.0000   0.0000   0.0000   0.0000   0.0000
     0.0000   0.0000   0.0000   0.0000   0.0000   0.0000   0.0000   0.0000
     0.0000   0.0000   0.0000   0.0000   0.0000   0.0000   0.0000   0.0000
     0.0000   0.0000   0.0000   0.0000   0.0000   0.0000   0.0000   0.0000
     0.0000   0.0000   0.0000   0.0000   0.0000   0.0000   0.0000   0.0000
     0.0000   0.0000   0.0000   0.0000   0.0000   0.0000   0.0000   0.0000
     0.0000   0.0000   0.0000   0.0000   0.0000   0.0000   0.0000   0.0000
     0.0000   0.0000   0.0000   0.0000   0.0000   0.0000   0.0000   0.0000
     0.0000   0.0000   0.0000   0.0000   0.0000   0.0000   0.0000   0.0000
     0.0000   0.0000   0.0000   0.0000   0.0000   0.0000   0.0000   0.0000
     0.0000   0.0000   0.0000   0.0000   0.0000   0.0000   0.0000   0.0000
     0.0000   0.0000   0.0000   0.0000   0.0000   0.0000   0.0000   0.0000

          k = 0.2667 0.4619-0.0595 ( 14777 PWs)   bands (ev):

   -66.6469 -40.9855 -40.8376 -40.8052 -18.0880 -17.9486 -11.2137 -11.1682
    -9.6190  -9.1928  -9.1803  -7.7458  -6.3592  -3.7837  -2.8167  -2.8024
    -1.1124   1.4373   2.3136   3.0465   3.7406   4.2621   5.3854   5.4011
     5.7846   6.2374   6.7202   6.9313   7.3577   7.7637   8.2631   8.5457
     8.5533   9.2259   9.7958  10.2651  10.7014  11.2209  11.2778  11.8006
    12.6378  12.7087  13.7385  14.2156  14.7336  15.2469  15.2689  15.7780
    15.8345  16.7116  16.9233  18.0280  18.3338  18.9290  18.9603  19.0764
    19.6315  19.8531  19.9678  21.2078  21.3631  21.6644  21.9696  22.3854
    22.6777  23.3490  23.5303  23.6722  23.8645  24.4137  24.4800  24.7178
    24.8008  25.0815  25.2462  25.8444  26.0815  26.3932  26.5029  26.7214
    27.0213  27.2831  27.3305  27.6381  28.1737  28.6032  29.0973  29.8253
    29.9572  30.0203  30.2783  30.7417  31.0001  31.2021  31.4547  31.5148
    31.9406  32.2439  32.6365  32.8688  33.0971  33.1264  33.7928  34.1267
    34.4846  34.5445  34.7565  35.4170  35.4304  35.6556  35.7249  36.1101
    36.2828  36.7855  36.9686  37.3466  37.8195  38.1618  38.4466  38.7417
    39.1412  39.3693  39.4867  39.6194  39.8115  39.8558  40.1865  40.2368
    40.5511  40.8254  40.9994  41.0097  41.3959  41.5905  41.9001  42.0159
    42.1937  42.3299  42.4736  42.9433  43.1134  43.2647  43.4707  43.8672
    43.9913  44.3272  44.5330  44.7338  45.1307  45.4017  45.5333  45.8846
    46.0888  46.4506  46.7283  46.9746  47.1084  47.3264  47.4650  47.8159
    48.0804  48.4199  48.6804  48.8534  48.9892  49.1018  49.2641  49.5454
    49.6958  49.8448  50.0319  50.1029  50.2879  50.4909  50.7114  50.8550
    51.1407  51.2329  51.2958  51.5373  51.7253  51.9803  52.0717  52.3196
    52.4648  52.7211  52.8765  52.9986  53.1400  53.5330  53.6221  53.7481
    53.8045  53.8583  54.1241  54.1663  54.5208  54.7510  54.7899  55.0891

     occupation numbers 
     1.0000   1.0000   1.0000   1.0000   1.0000   1.0000   1.0000   1.0000
     1.0000   1.0000   1.0000   1.0000   1.0000   0.0000   0.0000   0.0000
     0.0000   0.0000   0.0000   0.0000   0.0000   0.0000   0.0000   0.0000
     0.0000   0.0000   0.0000   0.0000   0.0000   0.0000   0.0000   0.0000
     0.0000   0.0000   0.0000   0.0000   0.0000   0.0000   0.0000   0.0000
     0.0000   0.0000   0.0000   0.0000   0.0000   0.0000   0.0000   0.0000
     0.0000   0.0000   0.0000   0.0000   0.0000   0.0000   0.0000   0.0000
     0.0000   0.0000   0.0000   0.0000   0.0000   0.0000   0.0000   0.0000
     0.0000   0.0000   0.0000   0.0000   0.0000   0.0000   0.0000   0.0000
     0.0000   0.0000   0.0000   0.0000   0.0000   0.0000   0.0000   0.0000
     0.0000   0.0000   0.0000   0.0000   0.0000   0.0000   0.0000   0.0000
     0.0000   0.0000   0.0000   0.0000   0.0000   0.0000   0.0000   0.0000
     0.0000   0.0000   0.0000   0.0000   0.0000   0.0000   0.0000   0.0000
     0.0000   0.0000   0.0000   0.0000   0.0000   0.0000   0.0000   0.0000
     0.0000   0.0000   0.0000   0.0000   0.0000   0.0000   0.0000   0.0000
     0.0000   0.0000   0.0000   0.0000   0.0000   0.0000   0.0000   0.0000
     0.0000   0.0000   0.0000   0.0000   0.0000   0.0000   0.0000   0.0000
     0.0000   0.0000   0.0000   0.0000   0.0000   0.0000   0.0000   0.0000
     0.0000   0.0000   0.0000   0.0000   0.0000   0.0000   0.0000   0.0000
     0.0000   0.0000   0.0000   0.0000   0.0000   0.0000   0.0000   0.0000
     0.0000   0.0000   0.0000   0.0000   0.0000   0.0000   0.0000   0.0000
     0.0000   0.0000   0.0000   0.0000   0.0000   0.0000   0.0000   0.0000
     0.0000   0.0000   0.0000   0.0000   0.0000   0.0000   0.0000   0.0000
     0.0000   0.0000   0.0000   0.0000   0.0000   0.0000   0.0000   0.0000
     0.0000   0.0000   0.0000   0.0000   0.0000   0.0000   0.0000   0.0000

          k = 0.2000 0.3464-0.0446 ( 14835 PWs)   bands (ev):

   -66.6579 -40.9395 -40.8269 -40.7544 -18.6853 -18.2047 -11.1446 -10.2834
    -9.7063  -9.3661  -8.2471  -7.1763  -6.7479  -3.9184  -3.2897  -3.0216
    -1.4118   1.7518   1.9384   2.5891   3.4191   3.7832   4.2990   4.5995
     5.2776   5.9558   5.9974   6.5761   6.7335   8.4242   8.5296   9.2699
     9.8605  10.5551  10.5888  10.8910  11.0426  11.9134  12.6307  12.9082
    13.0695  13.2586  13.4429  13.8447  15.1274  15.8277  16.0750  16.3164
    16.4252  16.9047  17.0707  17.8671  18.3136  18.9007  19.0554  19.1898
    19.6037  19.9288  20.1935  20.6101  21.5205  21.7918  21.9013  22.1813
    22.3970  22.6044  23.0379  23.2021  23.3401  23.5924  24.1529  24.4242
    24.8075  25.1676  25.3860  25.5403  25.6280  25.8648  26.0643  26.2984
    26.8205  27.4557  27.7922  28.0142  28.1975  28.3726  28.7648  29.2849
    29.4212  29.6225  30.1732  30.2648  30.5603  30.8534  31.5686  31.8191
    32.1385  32.6099  32.7809  33.1531  33.3778  33.5705  33.8741  34.0811
    34.4537  34.6634  35.0061  35.0849  35.1519  35.5427  36.0721  36.1543
    36.3497  36.7395  36.8821  37.0870  37.2992  37.5711  37.6253  37.8192
    38.0758  38.3370  38.4360  38.7277  38.9464  39.0895  39.4244  39.6164
    39.9680  40.1481  40.2937  40.3410  40.7108  40.8268  41.0296  41.3945
    41.5912  41.7464  42.2619  42.3530  42.5248  42.8491  43.2832  43.4140
    43.6180  43.9110  44.0045  44.1301  44.3552  44.7383  45.0063  45.3592
    45.5873  45.7329  46.1455  46.2522  46.8019  46.8496  47.1320  47.5019
    47.6765  47.7573  48.2141  48.3239  48.7376  48.9915  49.2748  49.6789
    49.7498  50.0461  50.1795  50.3281  50.4425  50.6513  50.8713  51.1043
    51.2440  51.3477  51.5898  51.8395  52.0397  52.1736  52.3942  52.5637
    52.6559  53.1268  53.2627  53.4537  53.5315  53.8366  54.1380  54.4179
    54.5373  54.5667  54.9014  55.0561  55.1645  55.4467  56.1018  56.2439

     occupation numbers 
     1.0000   1.0000   1.0000   1.0000   1.0000   1.0000   1.0000   1.0000
     1.0000   1.0000   1.0000   1.0000   1.0000   0.0000   0.0000   0.0000
     0.0000   0.0000   0.0000   0.0000   0.0000   0.0000   0.0000   0.0000
     0.0000   0.0000   0.0000   0.0000   0.0000   0.0000   0.0000   0.0000
     0.0000   0.0000   0.0000   0.0000   0.0000   0.0000   0.0000   0.0000
     0.0000   0.0000   0.0000   0.0000   0.0000   0.0000   0.0000   0.0000
     0.0000   0.0000   0.0000   0.0000   0.0000   0.0000   0.0000   0.0000
     0.0000   0.0000   0.0000   0.0000   0.0000   0.0000   0.0000   0.0000
     0.0000   0.0000   0.0000   0.0000   0.0000   0.0000   0.0000   0.0000
     0.0000   0.0000   0.0000   0.0000   0.0000   0.0000   0.0000   0.0000
     0.0000   0.0000   0.0000   0.0000   0.0000   0.0000   0.0000   0.0000
     0.0000   0.0000   0.0000   0.0000   0.0000   0.0000   0.0000   0.0000
     0.0000   0.0000   0.0000   0.0000   0.0000   0.0000   0.0000   0.0000
     0.0000   0.0000   0.0000   0.0000   0.0000   0.0000   0.0000   0.0000
     0.0000   0.0000   0.0000   0.0000   0.0000   0.0000   0.0000   0.0000
     0.0000   0.0000   0.0000   0.0000   0.0000   0.0000   0.0000   0.0000
     0.0000   0.0000   0.0000   0.0000   0.0000   0.0000   0.0000   0.0000
     0.0000   0.0000   0.0000   0.0000   0.0000   0.0000   0.0000   0.0000
     0.0000   0.0000   0.0000   0.0000   0.0000   0.0000   0.0000   0.0000
     0.0000   0.0000   0.0000   0.0000   0.0000   0.0000   0.0000   0.0000
     0.0000   0.0000   0.0000   0.0000   0.0000   0.0000   0.0000   0.0000
     0.0000   0.0000   0.0000   0.0000   0.0000   0.0000   0.0000   0.0000
     0.0000   0.0000   0.0000   0.0000   0.0000   0.0000   0.0000   0.0000
     0.0000   0.0000   0.0000   0.0000   0.0000   0.0000   0.0000   0.0000
     0.0000   0.0000   0.0000   0.0000   0.0000   0.0000   0.0000   0.0000

          k = 0.1333 0.2309-0.0297 ( 14831 PWs)   bands (ev):

   -66.6737 -40.8579 -40.8188 -40.6897 -19.4139 -18.5027 -11.0567  -9.7363
    -9.2924  -8.8053  -7.9445  -6.8719  -6.5849  -3.8806  -3.4060  -3.3745
    -1.9626   0.7547   0.8510   2.8417   3.1871   3.3928   3.6186   4.0298
     5.4456   5.6184   6.2275   6.3989   7.1619   7.3525   7.9595   8.9790
     9.5188  10.7081  11.6575  11.7898  12.8796  12.9306  13.0460  13.1384
    14.3853  14.8901  15.0158  15.1130  15.4122  15.5483  16.2961  16.4849
    16.9780  17.5997  17.7787  18.1062  18.2948  18.5922  19.1626  19.5769
    19.8238  20.4902  20.5896  21.0874  21.2498  21.6760  21.7950  21.8216
    22.5578  22.6820  23.1250  23.2227  23.7971  23.9538  24.1696  24.3114
    24.8114  24.9202  25.2979  25.5868  25.6135  25.8376  26.6093  27.2816
    27.3621  27.4209  27.7363  27.9483  28.0364  28.4529  28.5306  28.7336
    28.9205  29.1793  29.5254  29.8333  30.1742  30.3256  30.4298  30.6207
    30.9330  31.2056  31.2942  31.5543  31.8577  32.0368  32.2845  32.7370
    33.0587  33.2326  33.3505  33.7023  34.0044  34.2790  34.3504  34.7892
    35.1495  35.3422  35.7117  36.1748  36.2663  36.5456  36.8093  37.2794
    37.3685  37.8185  38.1569  38.3135  38.5029  38.7033  38.9080  39.1640
    39.4571  39.9853  40.3448  40.5150  40.7075  40.8721  40.9672  41.5129
    41.8449  42.0111  42.1173  42.6500  43.0014  43.1070  43.3392  43.4368
    43.9905  44.1284  44.5325  44.6646  44.7748  44.9292  45.4096  45.7089
    45.7824  45.9588  46.0592  46.5785  46.6457  46.7332  47.0945  47.2227
    47.3146  47.7524  47.9380  48.2183  48.2844  48.5848  48.7601  49.2548
    49.4257  49.8930  50.0704  50.4177  50.5623  50.5748  50.8861  51.2495
    51.5485  51.7949  52.2263  52.4682  52.7008  52.8633  53.1540  53.2918
    53.4817  53.6829  53.7836  54.0254  54.1813  54.3708  54.9322  54.9719
    55.1416  55.1948  55.4843  55.6100  55.7965  56.1223  56.1923  56.2951

     occupation numbers 
     1.0000   1.0000   1.0000   1.0000   1.0000   1.0000   1.0000   1.0000
     1.0000   1.0000   1.0000   1.0000   1.0000   0.0000   0.0000   0.0000
     0.0000   0.0000   0.0000   0.0000   0.0000   0.0000   0.0000   0.0000
     0.0000   0.0000   0.0000   0.0000   0.0000   0.0000   0.0000   0.0000
     0.0000   0.0000   0.0000   0.0000   0.0000   0.0000   0.0000   0.0000
     0.0000   0.0000   0.0000   0.0000   0.0000   0.0000   0.0000   0.0000
     0.0000   0.0000   0.0000   0.0000   0.0000   0.0000   0.0000   0.0000
     0.0000   0.0000   0.0000   0.0000   0.0000   0.0000   0.0000   0.0000
     0.0000   0.0000   0.0000   0.0000   0.0000   0.0000   0.0000   0.0000
     0.0000   0.0000   0.0000   0.0000   0.0000   0.0000   0.0000   0.0000
     0.0000   0.0000   0.0000   0.0000   0.0000   0.0000   0.0000   0.0000
     0.0000   0.0000   0.0000   0.0000   0.0000   0.0000   0.0000   0.0000
     0.0000   0.0000   0.0000   0.0000   0.0000   0.0000   0.0000   0.0000
     0.0000   0.0000   0.0000   0.0000   0.0000   0.0000   0.0000   0.0000
     0.0000   0.0000   0.0000   0.0000   0.0000   0.0000   0.0000   0.0000
     0.0000   0.0000   0.0000   0.0000   0.0000   0.0000   0.0000   0.0000
     0.0000   0.0000   0.0000   0.0000   0.0000   0.0000   0.0000   0.0000
     0.0000   0.0000   0.0000   0.0000   0.0000   0.0000   0.0000   0.0000
     0.0000   0.0000   0.0000   0.0000   0.0000   0.0000   0.0000   0.0000
     0.0000   0.0000   0.0000   0.0000   0.0000   0.0000   0.0000   0.0000
     0.0000   0.0000   0.0000   0.0000   0.0000   0.0000   0.0000   0.0000
     0.0000   0.0000   0.0000   0.0000   0.0000   0.0000   0.0000   0.0000
     0.0000   0.0000   0.0000   0.0000   0.0000   0.0000   0.0000   0.0000
     0.0000   0.0000   0.0000   0.0000   0.0000   0.0000   0.0000   0.0000
     0.0000   0.0000   0.0000   0.0000   0.0000   0.0000   0.0000   0.0000

          k = 0.0667 0.1155-0.0149 ( 14892 PWs)   bands (ev):

   -66.6876 -40.8851 -40.6915 -40.6503 -19.9722 -18.7293 -11.4990  -9.0279
    -8.5188  -8.3888  -7.8106  -6.9904  -6.1196  -3.3330  -3.3160  -3.0479
    -2.7297   0.0038   0.1049   1.2897   2.4443   2.5816   3.9531   4.2628
     5.3834   5.5891   5.7752   6.2824   6.9075   6.9869   9.1660   9.3688
     9.7497  10.3868  10.7116  10.7475  12.1407  12.9841  14.3874  15.3589
    15.4160  15.6745  15.8681  16.1175  16.3450  16.7104  17.5424  17.9577
    17.9631  18.4614  18.5246  18.6675  19.3691  19.7767  19.8129  20.1561
    20.2831  20.3674  21.0355  21.3455  21.6164  21.6262  22.1702  22.3163
    22.6011  22.7901  23.1684  23.2143  23.8406  23.9111  24.1623  24.4633
    24.5851  24.6823  24.7841  24.9149  25.3930  25.4226  26.0264  26.0566
    26.3306  26.3607  26.5317  27.1551  27.4315  27.6045  27.9179  27.9769
    28.3297  28.6591  28.9140  29.2535  29.2564  29.5138  29.7578  29.8244
    30.2029  30.2760  30.7246  31.1022  31.4080  31.5429  31.6540  31.8297
    32.4840  33.0052  33.1013  33.2205  33.2556  33.5766  33.8962  34.0465
    34.4428  34.6166  35.1181  35.2064  35.6288  35.8584  36.3684  36.5169
    36.8450  37.0257  37.1822  37.4134  37.7768  38.1994  38.2816  38.5831
    38.8145  39.3114  39.3459  39.7734  40.1122  40.6187  40.9364  41.1384
    41.2417  41.7906  41.9309  42.0822  42.3033  42.4570  42.5569  43.0526
    43.5565  43.7065  43.8702  44.2059  44.4439  44.6227  44.7651  45.0750
    45.8581  46.0042  46.1566  46.2539  46.7041  46.7335  47.0607  47.2778
    47.8347  48.0841  48.4262  48.9246  49.1848  49.2516  49.8073  50.1017
    50.4180  50.6236  51.0566  51.3596  51.6726  51.9177  52.2642  52.3776
    52.6234  52.6717  52.7567  53.0462  53.7603  53.9070  54.1248  54.2899
    54.5287  54.8300  55.0474  55.2765  55.4279  55.7921  56.0267  56.0826
    56.2816  56.4322  56.7826  56.9697  57.1912  57.2417  57.4218  57.5107

     occupation numbers 
     1.0000   1.0000   1.0000   1.0000   1.0000   1.0000   1.0000   1.0000
     1.0000   1.0000   1.0000   1.0000   1.0000   0.0000   0.0000   0.0000
     0.0000   0.0000   0.0000   0.0000   0.0000   0.0000   0.0000   0.0000
     0.0000   0.0000   0.0000   0.0000   0.0000   0.0000   0.0000   0.0000
     0.0000   0.0000   0.0000   0.0000   0.0000   0.0000   0.0000   0.0000
     0.0000   0.0000   0.0000   0.0000   0.0000   0.0000   0.0000   0.0000
     0.0000   0.0000   0.0000   0.0000   0.0000   0.0000   0.0000   0.0000
     0.0000   0.0000   0.0000   0.0000   0.0000   0.0000   0.0000   0.0000
     0.0000   0.0000   0.0000   0.0000   0.0000   0.0000   0.0000   0.0000
     0.0000   0.0000   0.0000   0.0000   0.0000   0.0000   0.0000   0.0000
     0.0000   0.0000   0.0000   0.0000   0.0000   0.0000   0.0000   0.0000
     0.0000   0.0000   0.0000   0.0000   0.0000   0.0000   0.0000   0.0000
     0.0000   0.0000   0.0000   0.0000   0.0000   0.0000   0.0000   0.0000
     0.0000   0.0000   0.0000   0.0000   0.0000   0.0000   0.0000   0.0000
     0.0000   0.0000   0.0000   0.0000   0.0000   0.0000   0.0000   0.0000
     0.0000   0.0000   0.0000   0.0000   0.0000   0.0000   0.0000   0.0000
     0.0000   0.0000   0.0000   0.0000   0.0000   0.0000   0.0000   0.0000
     0.0000   0.0000   0.0000   0.0000   0.0000   0.0000   0.0000   0.0000
     0.0000   0.0000   0.0000   0.0000   0.0000   0.0000   0.0000   0.0000
     0.0000   0.0000   0.0000   0.0000   0.0000   0.0000   0.0000   0.0000
     0.0000   0.0000   0.0000   0.0000   0.0000   0.0000   0.0000   0.0000
     0.0000   0.0000   0.0000   0.0000   0.0000   0.0000   0.0000   0.0000
     0.0000   0.0000   0.0000   0.0000   0.0000   0.0000   0.0000   0.0000
     0.0000   0.0000   0.0000   0.0000   0.0000   0.0000   0.0000   0.0000
     0.0000   0.0000   0.0000   0.0000   0.0000   0.0000   0.0000   0.0000

          k = 0.0000 0.0000 0.0000 ( 14903 PWs)   bands (ev):

   -66.6931 -40.8960 -40.6372 -40.6372 -20.1785 -18.8130 -11.7262  -8.6012
    -8.6012  -7.7928  -7.4461  -7.4461  -6.0182  -3.0914  -3.0914  -2.8120
    -2.8120  -0.3417  -0.1572   0.4374   2.1827   2.3414   3.1230   4.8343
     4.8343   5.3418   5.9939   6.8631   6.8631   7.1576   9.4461  10.1009
    10.1791  10.1791  10.4918  10.4918  10.6170  12.3251  13.9506  14.1999
    15.2408  16.2506  17.2134  17.2134  18.8366  18.8366  18.8767  19.1604
    19.5361  19.5361  19.5850  19.6821  19.6940  19.6940  20.2280  20.2583
    20.5356  20.5356  21.4636  21.4636  21.6759  21.8699  21.8784  21.8784
    22.1981  22.1981  22.2237  22.6383  22.6383  22.8354  23.6854  24.1632
    24.3731  24.3731  24.3810  24.3810  24.6869  25.1108  25.4775  25.4775
    25.6151  25.6151  25.7170  26.6606  27.2638  27.2638  27.7868  27.7868
    27.8465  28.6195  28.7091  28.9404  28.9404  29.5850  29.5850  30.0393
    30.0730  30.8210  30.8210  31.0525  31.3974  31.3974  31.5241  31.5241
    31.6615  32.2398  33.1886  33.2758  33.7972  33.7972  33.8204  33.8204
    34.5503  34.6343  35.4804  35.4804  35.5205  35.5205  36.1174  36.6664
    36.6664  36.9714  37.3489  37.3573  37.3573  37.7747  38.1954  38.6011
    38.6011  38.7221  38.7221  38.8992  39.7582  39.7582  40.6116  40.7905
    40.7905  41.4910  41.4910  41.6279  41.7090  41.8049  41.8049  42.1218
    42.5890  42.6958  42.6959  44.7374  44.7430  44.8315  44.8315  45.4771
    45.6224  45.6224  46.3249  46.3249  46.6046  46.7978  47.2926  47.3157
    47.3157  48.4458  48.6842  49.0413  49.0413  50.0748  50.0748  50.7540
    50.7540  50.8717  51.5561  52.0586  52.0586  52.1718  52.4121  52.4121
    52.8559  52.8559  53.2026  53.8633  53.8633  54.1272  54.1293  54.8972
    55.2348  55.5365  55.6925  55.6925  56.7881  56.7881  57.5283  57.5611
    57.5611  57.9275  57.9275  58.6763  58.6906  58.9473  58.9497  58.9555

     occupation numbers 
     1.0000   1.0000   1.0000   1.0000   1.0000   1.0000   1.0000   1.0000
     1.0000   1.0000   1.0000   1.0000   1.0000   0.0000   0.0000   0.0000
     0.0000   0.0000   0.0000   0.0000   0.0000   0.0000   0.0000   0.0000
     0.0000   0.0000   0.0000   0.0000   0.0000   0.0000   0.0000   0.0000
     0.0000   0.0000   0.0000   0.0000   0.0000   0.0000   0.0000   0.0000
     0.0000   0.0000   0.0000   0.0000   0.0000   0.0000   0.0000   0.0000
     0.0000   0.0000   0.0000   0.0000   0.0000   0.0000   0.0000   0.0000
     0.0000   0.0000   0.0000   0.0000   0.0000   0.0000   0.0000   0.0000
     0.0000   0.0000   0.0000   0.0000   0.0000   0.0000   0.0000   0.0000
     0.0000   0.0000   0.0000   0.0000   0.0000   0.0000   0.0000   0.0000
     0.0000   0.0000   0.0000   0.0000   0.0000   0.0000   0.0000   0.0000
     0.0000   0.0000   0.0000   0.0000   0.0000   0.0000   0.0000   0.0000
     0.0000   0.0000   0.0000   0.0000   0.0000   0.0000   0.0000   0.0000
     0.0000   0.0000   0.0000   0.0000   0.0000   0.0000   0.0000   0.0000
     0.0000   0.0000   0.0000   0.0000   0.0000   0.0000   0.0000   0.0000
     0.0000   0.0000   0.0000   0.0000   0.0000   0.0000   0.0000   0.0000
     0.0000   0.0000   0.0000   0.0000   0.0000   0.0000   0.0000   0.0000
     0.0000   0.0000   0.0000   0.0000   0.0000   0.0000   0.0000   0.0000
     0.0000   0.0000   0.0000   0.0000   0.0000   0.0000   0.0000   0.0000
     0.0000   0.0000   0.0000   0.0000   0.0000   0.0000   0.0000   0.0000
     0.0000   0.0000   0.0000   0.0000   0.0000   0.0000   0.0000   0.0000
     0.0000   0.0000   0.0000   0.0000   0.0000   0.0000   0.0000   0.0000
     0.0000   0.0000   0.0000   0.0000   0.0000   0.0000   0.0000   0.0000
     0.0000   0.0000   0.0000   0.0000   0.0000   0.0000   0.0000   0.0000
     0.0000   0.0000   0.0000   0.0000   0.0000   0.0000   0.0000   0.0000

          k =-0.0667-0.1155 0.0149 ( 14892 PWs)   bands (ev):

   -66.6876 -40.8851 -40.6915 -40.6503 -19.9722 -18.7293 -11.4990  -9.0279
    -8.5188  -8.3888  -7.8106  -6.9904  -6.1196  -3.3330  -3.3160  -3.0479
    -2.7297   0.0038   0.1049   1.2897   2.4443   2.5816   3.9531   4.2628
     5.3834   5.5891   5.7752   6.2824   6.9075   6.9869   9.1660   9.3688
     9.7497  10.3868  10.7116  10.7475  12.1407  12.9841  14.3874  15.3589
    15.4160  15.6745  15.8681  16.1175  16.3450  16.7104  17.5424  17.9577
    17.9631  18.4614  18.5246  18.6675  19.3691  19.7767  19.8129  20.1561
    20.2831  20.3674  21.0355  21.3455  21.6164  21.6262  22.1702  22.3163
    22.6011  22.7901  23.1684  23.2143  23.8406  23.9111  24.1623  24.4633
    24.5851  24.6823  24.7841  24.9149  25.3930  25.4226  26.0264  26.0566
    26.3306  26.3607  26.5317  27.1551  27.4315  27.6045  27.9179  27.9769
    28.3297  28.6591  28.9140  29.2535  29.2564  29.5138  29.7578  29.8244
    30.2029  30.2760  30.7246  31.1022  31.4080  31.5429  31.6540  31.8297
    32.4840  33.0052  33.1013  33.2205  33.2556  33.5766  33.8962  34.0465
    34.4428  34.6166  35.1181  35.2064  35.6288  35.8584  36.3684  36.5169
    36.8450  37.0257  37.1822  37.4134  37.7768  38.1994  38.2816  38.5831
    38.8145  39.3114  39.3459  39.7734  40.1122  40.6187  40.9364  41.1384
    41.2417  41.7906  41.9309  42.0822  42.3033  42.4570  42.5569  43.0526
    43.5565  43.7065  43.8702  44.2059  44.4439  44.6227  44.7651  45.0750
    45.8581  46.0042  46.1566  46.2539  46.7041  46.7335  47.0607  47.2778
    47.8347  48.0841  48.4262  48.9246  49.1848  49.2516  49.8073  50.1017
    50.4180  50.6236  51.0566  51.3596  51.6726  51.9177  52.2642  52.3776
    52.6234  52.6717  52.7567  53.0462  53.7603  53.9070  54.1248  54.2899
    54.5287  54.8300  55.0474  55.2765  55.4279  55.7921  56.0267  56.0826
    56.2816  56.4322  56.7826  56.9697  57.1912  57.2417  57.4218  57.5107

     occupation numbers 
     1.0000   1.0000   1.0000   1.0000   1.0000   1.0000   1.0000   1.0000
     1.0000   1.0000   1.0000   1.0000   1.0000   0.0000   0.0000   0.0000
     0.0000   0.0000   0.0000   0.0000   0.0000   0.0000   0.0000   0.0000
     0.0000   0.0000   0.0000   0.0000   0.0000   0.0000   0.0000   0.0000
     0.0000   0.0000   0.0000   0.0000   0.0000   0.0000   0.0000   0.0000
     0.0000   0.0000   0.0000   0.0000   0.0000   0.0000   0.0000   0.0000
     0.0000   0.0000   0.0000   0.0000   0.0000   0.0000   0.0000   0.0000
     0.0000   0.0000   0.0000   0.0000   0.0000   0.0000   0.0000   0.0000
     0.0000   0.0000   0.0000   0.0000   0.0000   0.0000   0.0000   0.0000
     0.0000   0.0000   0.0000   0.0000   0.0000   0.0000   0.0000   0.0000
     0.0000   0.0000   0.0000   0.0000   0.0000   0.0000   0.0000   0.0000
     0.0000   0.0000   0.0000   0.0000   0.0000   0.0000   0.0000   0.0000
     0.0000   0.0000   0.0000   0.0000   0.0000   0.0000   0.0000   0.0000
     0.0000   0.0000   0.0000   0.0000   0.0000   0.0000   0.0000   0.0000
     0.0000   0.0000   0.0000   0.0000   0.0000   0.0000   0.0000   0.0000
     0.0000   0.0000   0.0000   0.0000   0.0000   0.0000   0.0000   0.0000
     0.0000   0.0000   0.0000   0.0000   0.0000   0.0000   0.0000   0.0000
     0.0000   0.0000   0.0000   0.0000   0.0000   0.0000   0.0000   0.0000
     0.0000   0.0000   0.0000   0.0000   0.0000   0.0000   0.0000   0.0000
     0.0000   0.0000   0.0000   0.0000   0.0000   0.0000   0.0000   0.0000
     0.0000   0.0000   0.0000   0.0000   0.0000   0.0000   0.0000   0.0000
     0.0000   0.0000   0.0000   0.0000   0.0000   0.0000   0.0000   0.0000
     0.0000   0.0000   0.0000   0.0000   0.0000   0.0000   0.0000   0.0000
     0.0000   0.0000   0.0000   0.0000   0.0000   0.0000   0.0000   0.0000
     0.0000   0.0000   0.0000   0.0000   0.0000   0.0000   0.0000   0.0000

          k =-0.1333-0.2309 0.0297 ( 14831 PWs)   bands (ev):

   -66.6737 -40.8579 -40.8188 -40.6897 -19.4139 -18.5027 -11.0567  -9.7363
    -9.2924  -8.8053  -7.9445  -6.8719  -6.5849  -3.8806  -3.4060  -3.3745
    -1.9626   0.7547   0.8510   2.8417   3.1871   3.3928   3.6186   4.0298
     5.4456   5.6184   6.2275   6.3989   7.1619   7.3525   7.9595   8.9790
     9.5188  10.7081  11.6575  11.7898  12.8796  12.9306  13.0460  13.1384
    14.3853  14.8901  15.0158  15.1130  15.4122  15.5483  16.2961  16.4849
    16.9780  17.5997  17.7787  18.1062  18.2948  18.5922  19.1626  19.5769
    19.8238  20.4902  20.5896  21.0874  21.2498  21.6760  21.7950  21.8216
    22.5578  22.6820  23.1250  23.2227  23.7971  23.9538  24.1696  24.3114
    24.8114  24.9202  25.2979  25.5868  25.6135  25.8376  26.6093  27.2816
    27.3621  27.4209  27.7363  27.9483  28.0364  28.4529  28.5306  28.7336
    28.9205  29.1793  29.5254  29.8333  30.1742  30.3256  30.4298  30.6207
    30.9330  31.2056  31.2942  31.5543  31.8577  32.0368  32.2845  32.7370
    33.0587  33.2326  33.3505  33.7023  34.0044  34.2790  34.3504  34.7892
    35.1495  35.3422  35.7117  36.1748  36.2663  36.5456  36.8093  37.2794
    37.3685  37.8185  38.1569  38.3135  38.5029  38.7033  38.9080  39.1640
    39.4571  39.9853  40.3448  40.5150  40.7075  40.8721  40.9672  41.5129
    41.8449  42.0111  42.1173  42.6500  43.0014  43.1070  43.3392  43.4368
    43.9905  44.1284  44.5325  44.6646  44.7748  44.9292  45.4096  45.7089
    45.7824  45.9588  46.0592  46.5785  46.6457  46.7332  47.0945  47.2227
    47.3146  47.7524  47.9380  48.2183  48.2844  48.5848  48.7601  49.2548
    49.4257  49.8930  50.0704  50.4177  50.5623  50.5748  50.8861  51.2495
    51.5485  51.7949  52.2263  52.4682  52.7008  52.8633  53.1540  53.2918
    53.4817  53.6829  53.7836  54.0254  54.1813  54.3708  54.9322  54.9719
    55.1416  55.1948  55.4843  55.6100  55.7965  56.1223  56.1923  56.2951

     occupation numbers 
     1.0000   1.0000   1.0000   1.0000   1.0000   1.0000   1.0000   1.0000
     1.0000   1.0000   1.0000   1.0000   1.0000   0.0000   0.0000   0.0000
     0.0000   0.0000   0.0000   0.0000   0.0000   0.0000   0.0000   0.0000
     0.0000   0.0000   0.0000   0.0000   0.0000   0.0000   0.0000   0.0000
     0.0000   0.0000   0.0000   0.0000   0.0000   0.0000   0.0000   0.0000
     0.0000   0.0000   0.0000   0.0000   0.0000   0.0000   0.0000   0.0000
     0.0000   0.0000   0.0000   0.0000   0.0000   0.0000   0.0000   0.0000
     0.0000   0.0000   0.0000   0.0000   0.0000   0.0000   0.0000   0.0000
     0.0000   0.0000   0.0000   0.0000   0.0000   0.0000   0.0000   0.0000
     0.0000   0.0000   0.0000   0.0000   0.0000   0.0000   0.0000   0.0000
     0.0000   0.0000   0.0000   0.0000   0.0000   0.0000   0.0000   0.0000
     0.0000   0.0000   0.0000   0.0000   0.0000   0.0000   0.0000   0.0000
     0.0000   0.0000   0.0000   0.0000   0.0000   0.0000   0.0000   0.0000
     0.0000   0.0000   0.0000   0.0000   0.0000   0.0000   0.0000   0.0000
     0.0000   0.0000   0.0000   0.0000   0.0000   0.0000   0.0000   0.0000
     0.0000   0.0000   0.0000   0.0000   0.0000   0.0000   0.0000   0.0000
     0.0000   0.0000   0.0000   0.0000   0.0000   0.0000   0.0000   0.0000
     0.0000   0.0000   0.0000   0.0000   0.0000   0.0000   0.0000   0.0000
     0.0000   0.0000   0.0000   0.0000   0.0000   0.0000   0.0000   0.0000
     0.0000   0.0000   0.0000   0.0000   0.0000   0.0000   0.0000   0.0000
     0.0000   0.0000   0.0000   0.0000   0.0000   0.0000   0.0000   0.0000
     0.0000   0.0000   0.0000   0.0000   0.0000   0.0000   0.0000   0.0000
     0.0000   0.0000   0.0000   0.0000   0.0000   0.0000   0.0000   0.0000
     0.0000   0.0000   0.0000   0.0000   0.0000   0.0000   0.0000   0.0000
     0.0000   0.0000   0.0000   0.0000   0.0000   0.0000   0.0000   0.0000

          k =-0.2000-0.3464 0.0446 ( 14835 PWs)   bands (ev):

   -66.6579 -40.9395 -40.8269 -40.7544 -18.6853 -18.2047 -11.1446 -10.2834
    -9.7063  -9.3661  -8.2471  -7.1763  -6.7479  -3.9184  -3.2897  -3.0216
    -1.4118   1.7518   1.9384   2.5891   3.4191   3.7832   4.2990   4.5995
     5.2776   5.9558   5.9974   6.5761   6.7335   8.4242   8.5296   9.2699
     9.8605  10.5551  10.5888  10.8910  11.0426  11.9134  12.6307  12.9082
    13.0695  13.2586  13.4429  13.8447  15.1274  15.8277  16.0750  16.3164
    16.4252  16.9047  17.0707  17.8671  18.3136  18.9007  19.0554  19.1898
    19.6037  19.9288  20.1935  20.6101  21.5205  21.7918  21.9013  22.1813
    22.3970  22.6044  23.0379  23.2021  23.3401  23.5924  24.1529  24.4242
    24.8075  25.1676  25.3860  25.5403  25.6280  25.8648  26.0643  26.2984
    26.8205  27.4557  27.7922  28.0142  28.1975  28.3726  28.7648  29.2849
    29.4212  29.6225  30.1732  30.2648  30.5603  30.8534  31.5686  31.8191
    32.1385  32.6099  32.7809  33.1531  33.3778  33.5705  33.8741  34.0811
    34.4537  34.6634  35.0061  35.0849  35.1519  35.5427  36.0721  36.1543
    36.3497  36.7395  36.8821  37.0870  37.2992  37.5711  37.6253  37.8192
    38.0758  38.3370  38.4360  38.7277  38.9464  39.0895  39.4244  39.6164
    39.9680  40.1481  40.2937  40.3410  40.7108  40.8268  41.0296  41.3945
    41.5912  41.7464  42.2619  42.3530  42.5248  42.8491  43.2832  43.4140
    43.6180  43.9110  44.0045  44.1301  44.3552  44.7383  45.0063  45.3592
    45.5873  45.7329  46.1455  46.2522  46.8019  46.8496  47.1320  47.5019
    47.6765  47.7573  48.2141  48.3239  48.7376  48.9915  49.2748  49.6789
    49.7498  50.0461  50.1795  50.3281  50.4425  50.6513  50.8713  51.1043
    51.2440  51.3477  51.5898  51.8395  52.0397  52.1736  52.3942  52.5637
    52.6559  53.1268  53.2627  53.4537  53.5315  53.8366  54.1380  54.4179
    54.5373  54.5667  54.9014  55.0561  55.1645  55.4467  56.1018  56.2439

     occupation numbers 
     1.0000   1.0000   1.0000   1.0000   1.0000   1.0000   1.0000   1.0000
     1.0000   1.0000   1.0000   1.0000   1.0000   0.0000   0.0000   0.0000
     0.0000   0.0000   0.0000   0.0000   0.0000   0.0000   0.0000   0.0000
     0.0000   0.0000   0.0000   0.0000   0.0000   0.0000   0.0000   0.0000
     0.0000   0.0000   0.0000   0.0000   0.0000   0.0000   0.0000   0.0000
     0.0000   0.0000   0.0000   0.0000   0.0000   0.0000   0.0000   0.0000
     0.0000   0.0000   0.0000   0.0000   0.0000   0.0000   0.0000   0.0000
     0.0000   0.0000   0.0000   0.0000   0.0000   0.0000   0.0000   0.0000
     0.0000   0.0000   0.0000   0.0000   0.0000   0.0000   0.0000   0.0000
     0.0000   0.0000   0.0000   0.0000   0.0000   0.0000   0.0000   0.0000
     0.0000   0.0000   0.0000   0.0000   0.0000   0.0000   0.0000   0.0000
     0.0000   0.0000   0.0000   0.0000   0.0000   0.0000   0.0000   0.0000
     0.0000   0.0000   0.0000   0.0000   0.0000   0.0000   0.0000   0.0000
     0.0000   0.0000   0.0000   0.0000   0.0000   0.0000   0.0000   0.0000
     0.0000   0.0000   0.0000   0.0000   0.0000   0.0000   0.0000   0.0000
     0.0000   0.0000   0.0000   0.0000   0.0000   0.0000   0.0000   0.0000
     0.0000   0.0000   0.0000   0.0000   0.0000   0.0000   0.0000   0.0000
     0.0000   0.0000   0.0000   0.0000   0.0000   0.0000   0.0000   0.0000
     0.0000   0.0000   0.0000   0.0000   0.0000   0.0000   0.0000   0.0000
     0.0000   0.0000   0.0000   0.0000   0.0000   0.0000   0.0000   0.0000
     0.0000   0.0000   0.0000   0.0000   0.0000   0.0000   0.0000   0.0000
     0.0000   0.0000   0.0000   0.0000   0.0000   0.0000   0.0000   0.0000
     0.0000   0.0000   0.0000   0.0000   0.0000   0.0000   0.0000   0.0000
     0.0000   0.0000   0.0000   0.0000   0.0000   0.0000   0.0000   0.0000
     0.0000   0.0000   0.0000   0.0000   0.0000   0.0000   0.0000   0.0000

          k =-0.2667-0.4619 0.0595 ( 14777 PWs)   bands (ev):

   -66.6469 -40.9855 -40.8376 -40.8052 -18.0880 -17.9486 -11.2137 -11.1682
    -9.6190  -9.1928  -9.1803  -7.7458  -6.3592  -3.7837  -2.8167  -2.8024
    -1.1124   1.4373   2.3136   3.0465   3.7406   4.2621   5.3854   5.4011
     5.7846   6.2374   6.7202   6.9313   7.3577   7.7637   8.2631   8.5457
     8.5533   9.2259   9.7958  10.2651  10.7014  11.2209  11.2778  11.8006
    12.6378  12.7087  13.7385  14.2156  14.7336  15.2469  15.2689  15.7780
    15.8345  16.7116  16.9233  18.0280  18.3338  18.9290  18.9603  19.0764
    19.6315  19.8531  19.9678  21.2078  21.3631  21.6644  21.9696  22.3854
    22.6777  23.3490  23.5303  23.6722  23.8645  24.4137  24.4800  24.7178
    24.8008  25.0815  25.2462  25.8444  26.0815  26.3932  26.5029  26.7214
    27.0213  27.2831  27.3305  27.6381  28.1737  28.6032  29.0973  29.8253
    29.9572  30.0203  30.2783  30.7417  31.0001  31.2021  31.4547  31.5148
    31.9406  32.2439  32.6365  32.8688  33.0971  33.1264  33.7928  34.1267
    34.4846  34.5445  34.7565  35.4170  35.4304  35.6556  35.7249  36.1101
    36.2828  36.7855  36.9686  37.3466  37.8195  38.1618  38.4466  38.7417
    39.1412  39.3693  39.4867  39.6194  39.8115  39.8558  40.1865  40.2368
    40.5511  40.8254  40.9994  41.0097  41.3959  41.5905  41.9001  42.0159
    42.1937  42.3299  42.4736  42.9433  43.1134  43.2647  43.4707  43.8672
    43.9913  44.3272  44.5330  44.7338  45.1307  45.4017  45.5333  45.8846
    46.0888  46.4506  46.7283  46.9746  47.1084  47.3264  47.4650  47.8159
    48.0804  48.4199  48.6804  48.8534  48.9892  49.1018  49.2641  49.5454
    49.6958  49.8448  50.0319  50.1029  50.2879  50.4909  50.7114  50.8550
    51.1407  51.2329  51.2958  51.5373  51.7253  51.9803  52.0717  52.3196
    52.4648  52.7211  52.8765  52.9986  53.1400  53.5330  53.6221  53.7481
    53.8045  53.8583  54.1241  54.1663  54.5208  54.7510  54.7899  55.0891

     occupation numbers 
     1.0000   1.0000   1.0000   1.0000   1.0000   1.0000   1.0000   1.0000
     1.0000   1.0000   1.0000   1.0000   1.0000   0.0000   0.0000   0.0000
     0.0000   0.0000   0.0000   0.0000   0.0000   0.0000   0.0000   0.0000
     0.0000   0.0000   0.0000   0.0000   0.0000   0.0000   0.0000   0.0000
     0.0000   0.0000   0.0000   0.0000   0.0000   0.0000   0.0000   0.0000
     0.0000   0.0000   0.0000   0.0000   0.0000   0.0000   0.0000   0.0000
     0.0000   0.0000   0.0000   0.0000   0.0000   0.0000   0.0000   0.0000
     0.0000   0.0000   0.0000   0.0000   0.0000   0.0000   0.0000   0.0000
     0.0000   0.0000   0.0000   0.0000   0.0000   0.0000   0.0000   0.0000
     0.0000   0.0000   0.0000   0.0000   0.0000   0.0000   0.0000   0.0000
     0.0000   0.0000   0.0000   0.0000   0.0000   0.0000   0.0000   0.0000
     0.0000   0.0000   0.0000   0.0000   0.0000   0.0000   0.0000   0.0000
     0.0000   0.0000   0.0000   0.0000   0.0000   0.0000   0.0000   0.0000
     0.0000   0.0000   0.0000   0.0000   0.0000   0.0000   0.0000   0.0000
     0.0000   0.0000   0.0000   0.0000   0.0000   0.0000   0.0000   0.0000
     0.0000   0.0000   0.0000   0.0000   0.0000   0.0000   0.0000   0.0000
     0.0000   0.0000   0.0000   0.0000   0.0000   0.0000   0.0000   0.0000
     0.0000   0.0000   0.0000   0.0000   0.0000   0.0000   0.0000   0.0000
     0.0000   0.0000   0.0000   0.0000   0.0000   0.0000   0.0000   0.0000
     0.0000   0.0000   0.0000   0.0000   0.0000   0.0000   0.0000   0.0000
     0.0000   0.0000   0.0000   0.0000   0.0000   0.0000   0.0000   0.0000
     0.0000   0.0000   0.0000   0.0000   0.0000   0.0000   0.0000   0.0000
     0.0000   0.0000   0.0000   0.0000   0.0000   0.0000   0.0000   0.0000
     0.0000   0.0000   0.0000   0.0000   0.0000   0.0000   0.0000   0.0000
     0.0000   0.0000   0.0000   0.0000   0.0000   0.0000   0.0000   0.0000

          k =-0.3333-0.5774 0.0743 ( 14772 PWs)   bands (ev):

   -66.6434 -40.9567 -40.9074 -40.7984 -17.8857 -17.8520 -11.5453 -10.6799
   -10.1581  -9.5376  -8.9048  -8.1349  -5.9734  -4.1909  -2.9040  -2.2691
    -0.8689   1.3160   1.6215   3.6417   4.6096   5.3663   5.6963   5.9391
     6.0190   6.3757   6.9432   7.1905   7.4506   7.4613   7.4759   7.8192
     8.3873   9.1623   9.4294   9.6466   9.8558  10.5258  10.9035  11.6769
    12.5762  12.8041  13.4359  13.4483  13.7509  14.1488  14.5843  15.9966
    17.3908  17.6064  17.9066  18.0280  18.0534  18.9627  19.0538  19.5322
    19.7089  20.0405  20.6654  21.0362  21.5418  21.6090  21.8716  22.0710
    22.5347  22.6373  23.0848  23.4049  23.5068  24.4092  24.8076  24.9150
    25.0941  25.8339  26.4232  26.4963  26.6542  26.7375  26.8619  27.1441
    27.2385  28.0326  28.2489  28.5392  28.6385  28.6782  29.0436  29.2247
    29.6713  29.7185  29.7305  29.8245  30.4975  30.8180  30.8774  31.2649
    32.2056  32.3210  32.3547  32.5508  32.7819  33.0747  33.3004  33.4139
    33.4514  33.7782  34.3089  34.3415  35.3669  35.6205  35.6783  35.7852
    36.6436  36.9102  36.9808  37.0828  37.1698  37.6605  37.7230  38.4837
    38.7013  38.9265  38.9859  38.9885  39.6052  39.8702  40.8580  40.9942
    41.0409  41.3631  41.6584  42.0136  42.0358  42.5062  42.9991  43.1119
    43.5615  43.7233  43.9939  44.5299  44.7213  44.9869  44.9900  45.1814
    45.4179  45.4422  45.9629  45.9840  45.9900  46.3105  46.5290  46.5746
    46.8934  47.0580  47.2532  47.3303  47.4858  47.5242  47.7683  48.0025
    48.0032  48.3096  48.3242  48.3606  48.4774  48.4861  48.6391  48.7737
    48.9746  49.3409  49.4903  49.5944  49.7111  49.8108  49.8535  50.1538
    50.3261  50.3616  50.6086  50.8478  50.8492  51.4086  51.4570  51.5171
    51.6506  52.0860  52.2323  52.3155  52.6612  53.0257  53.0622  53.1741
    53.2917  53.6726  53.7129  54.0470  54.0693  54.1266  54.4128  54.5118

     occupation numbers 
     1.0000   1.0000   1.0000   1.0000   1.0000   1.0000   1.0000   1.0000
     1.0000   1.0000   1.0000   1.0000   1.0000   0.0000   0.0000   0.0000
     0.0000   0.0000   0.0000   0.0000   0.0000   0.0000   0.0000   0.0000
     0.0000   0.0000   0.0000   0.0000   0.0000   0.0000   0.0000   0.0000
     0.0000   0.0000   0.0000   0.0000   0.0000   0.0000   0.0000   0.0000
     0.0000   0.0000   0.0000   0.0000   0.0000   0.0000   0.0000   0.0000
     0.0000   0.0000   0.0000   0.0000   0.0000   0.0000   0.0000   0.0000
     0.0000   0.0000   0.0000   0.0000   0.0000   0.0000   0.0000   0.0000
     0.0000   0.0000   0.0000   0.0000   0.0000   0.0000   0.0000   0.0000
     0.0000   0.0000   0.0000   0.0000   0.0000   0.0000   0.0000   0.0000
     0.0000   0.0000   0.0000   0.0000   0.0000   0.0000   0.0000   0.0000
     0.0000   0.0000   0.0000   0.0000   0.0000   0.0000   0.0000   0.0000
     0.0000   0.0000   0.0000   0.0000   0.0000   0.0000   0.0000   0.0000
     0.0000   0.0000   0.0000   0.0000   0.0000   0.0000   0.0000   0.0000
     0.0000   0.0000   0.0000   0.0000   0.0000   0.0000   0.0000   0.0000
     0.0000   0.0000   0.0000   0.0000   0.0000   0.0000   0.0000   0.0000
     0.0000   0.0000   0.0000   0.0000   0.0000   0.0000   0.0000   0.0000
     0.0000   0.0000   0.0000   0.0000   0.0000   0.0000   0.0000   0.0000
     0.0000   0.0000   0.0000   0.0000   0.0000   0.0000   0.0000   0.0000
     0.0000   0.0000   0.0000   0.0000   0.0000   0.0000   0.0000   0.0000
     0.0000   0.0000   0.0000   0.0000   0.0000   0.0000   0.0000   0.0000
     0.0000   0.0000   0.0000   0.0000   0.0000   0.0000   0.0000   0.0000
     0.0000   0.0000   0.0000   0.0000   0.0000   0.0000   0.0000   0.0000
     0.0000   0.0000   0.0000   0.0000   0.0000   0.0000   0.0000   0.0000
     0.0000   0.0000   0.0000   0.0000   0.0000   0.0000   0.0000   0.0000

          k =-0.2667-0.4619 0.0669 ( 14777 PWs)   bands (ev):

   -66.6469 -40.9855 -40.8376 -40.8052 -18.0880 -17.9486 -11.2137 -11.1682
    -9.6190  -9.1928  -9.1803  -7.7458  -6.3592  -3.7837  -2.8167  -2.8024
    -1.1124   1.4373   2.3136   3.0465   3.7406   4.2621   5.3854   5.4011
     5.7846   6.2374   6.7202   6.9313   7.3577   7.7638   8.2631   8.5457
     8.5533   9.2259   9.7957  10.2651  10.7015  11.2212  11.2776  11.8005
    12.6372  12.7089  13.7387  14.2161  14.7331  15.2466  15.2706  15.7804
    15.8289  16.7135  16.9230  18.0314  18.3320  18.9401  18.9586  19.0680
    19.6160  19.8641  19.9579  21.2632  21.3527  21.6792  21.9107  22.3867
    22.6704  23.3554  23.5505  23.7049  23.8179  24.4278  24.4629  24.7014
    24.8053  25.0849  25.2453  25.9257  26.0723  26.3355  26.4989  26.7330
    27.0226  27.3029  27.3296  27.6512  28.0774  28.6344  29.0755  29.8791
    29.9770  30.0152  30.2882  30.7355  31.0116  31.2014  31.4855  31.5261
    31.8503  32.2470  32.6414  32.8743  33.0978  33.1196  33.7318  34.1484
    34.5062  34.5401  34.7490  35.4690  35.5130  35.6354  35.6841  36.1329
    36.2200  36.8150  37.0336  37.2419  37.7998  38.1771  38.5230  38.7188
    39.1166  39.3958  39.4599  39.5512  39.8125  39.8497  40.1768  40.2420
    40.5386  40.8662  41.0178  41.0897  41.3408  41.6146  41.8944  42.0274
    42.1958  42.3122  42.4462  42.9695  43.0796  43.3328  43.4575  43.8138
    43.9851  44.3892  44.5110  44.6951  45.0940  45.4534  45.5204  46.0026
    46.1163  46.3348  46.7116  46.9821  47.0844  47.3392  47.3928  47.8752
    48.0289  48.4161  48.7326  48.8458  49.0162  49.0713  49.3047  49.5634
    49.7513  49.8336  49.9936  50.0915  50.2634  50.5788  50.7574  50.8135
    51.1036  51.2081  51.2840  51.5283  51.7581  51.9787  52.0517  52.3145
    52.4424  52.7135  52.9333  52.9855  53.0809  53.5581  53.6110  53.7603
    53.8106  53.8236  54.1110  54.1823  54.5030  54.7528  54.7906  55.0995

     occupation numbers 
     1.0000   1.0000   1.0000   1.0000   1.0000   1.0000   1.0000   1.0000
     1.0000   1.0000   1.0000   1.0000   1.0000   0.0000   0.0000   0.0000
     0.0000   0.0000   0.0000   0.0000   0.0000   0.0000   0.0000   0.0000
     0.0000   0.0000   0.0000   0.0000   0.0000   0.0000   0.0000   0.0000
     0.0000   0.0000   0.0000   0.0000   0.0000   0.0000   0.0000   0.0000
     0.0000   0.0000   0.0000   0.0000   0.0000   0.0000   0.0000   0.0000
     0.0000   0.0000   0.0000   0.0000   0.0000   0.0000   0.0000   0.0000
     0.0000   0.0000   0.0000   0.0000   0.0000   0.0000   0.0000   0.0000
     0.0000   0.0000   0.0000   0.0000   0.0000   0.0000   0.0000   0.0000
     0.0000   0.0000   0.0000   0.0000   0.0000   0.0000   0.0000   0.0000
     0.0000   0.0000   0.0000   0.0000   0.0000   0.0000   0.0000   0.0000
     0.0000   0.0000   0.0000   0.0000   0.0000   0.0000   0.0000   0.0000
     0.0000   0.0000   0.0000   0.0000   0.0000   0.0000   0.0000   0.0000
     0.0000   0.0000   0.0000   0.0000   0.0000   0.0000   0.0000   0.0000
     0.0000   0.0000   0.0000   0.0000   0.0000   0.0000   0.0000   0.0000
     0.0000   0.0000   0.0000   0.0000   0.0000   0.0000   0.0000   0.0000
     0.0000   0.0000   0.0000   0.0000   0.0000   0.0000   0.0000   0.0000
     0.0000   0.0000   0.0000   0.0000   0.0000   0.0000   0.0000   0.0000
     0.0000   0.0000   0.0000   0.0000   0.0000   0.0000   0.0000   0.0000
     0.0000   0.0000   0.0000   0.0000   0.0000   0.0000   0.0000   0.0000
     0.0000   0.0000   0.0000   0.0000   0.0000   0.0000   0.0000   0.0000
     0.0000   0.0000   0.0000   0.0000   0.0000   0.0000   0.0000   0.0000
     0.0000   0.0000   0.0000   0.0000   0.0000   0.0000   0.0000   0.0000
     0.0000   0.0000   0.0000   0.0000   0.0000   0.0000   0.0000   0.0000
     0.0000   0.0000   0.0000   0.0000   0.0000   0.0000   0.0000   0.0000

          k =-0.2000-0.3464 0.0595 ( 14827 PWs)   bands (ev):

   -66.6579 -40.9395 -40.8269 -40.7544 -18.6853 -18.2047 -11.1446 -10.2834
    -9.7063  -9.3661  -8.2471  -7.1763  -6.7479  -3.9184  -3.2897  -3.0216
    -1.4118   1.7518   1.9384   2.5891   3.4191   3.7832   4.2989   4.5995
     5.2777   5.9557   5.9975   6.5761   6.7338   8.4240   8.5288   9.2706
     9.8612  10.5553  10.5885  10.8910  11.0429  11.9104  12.6314  12.9053
    13.0710  13.2582  13.4523  13.8388  15.1299  15.8177  16.0780  16.3226
    16.4243  16.9021  17.0962  17.7971  18.3270  18.9024  19.0542  19.1956
    19.7526  19.9657  20.1819  20.4167  21.4875  21.8296  21.8866  22.1690
    22.3920  22.6114  23.0892  23.2531  23.3321  23.7059  24.1250  24.3640
    24.7622  25.1835  25.3658  25.5365  25.6045  25.8379  26.0517  26.3148
    26.7882  27.4506  27.8393  28.0972  28.1915  28.3850  28.7166  29.3419
    29.4935  29.6197  30.0072  30.3704  30.6144  30.7664  31.3322  31.9594
    32.0817  32.6706  32.9057  33.1138  33.4336  33.6129  33.7764  33.9680
    34.4546  34.6292  35.0301  35.1331  35.2943  35.4596  36.1042  36.1157
    36.4989  36.7497  36.9036  37.0214  37.2822  37.4231  37.5969  37.8068
    38.0865  38.3332  38.4927  38.7262  38.9475  38.9924  39.4920  39.6500
    39.9586  40.1387  40.2956  40.4228  40.7255  40.8164  41.0803  41.2739
    41.4504  41.7715  42.2922  42.3908  42.6998  42.7227  43.2475  43.4654
    43.6390  43.8241  44.1181  44.1953  44.3302  44.7953  45.0497  45.2981
    45.6647  45.7565  45.9870  46.2033  46.7702  46.8578  47.1155  47.2895
    47.6097  47.8307  48.1126  48.4160  48.7780  48.8853  49.4694  49.7233
    49.8123  50.0449  50.2208  50.3255  50.4846  50.8086  51.0263  51.0495
    51.1032  51.5129  51.5971  51.8546  51.9170  52.0000  52.4210  52.5817
    52.8028  52.9866  53.1684  53.3377  53.5610  53.8873  54.1605  54.1715
    54.5099  54.7292  54.8280  54.9510  55.1802  55.3818  56.0337  56.2004

     occupation numbers 
     1.0000   1.0000   1.0000   1.0000   1.0000   1.0000   1.0000   1.0000
     1.0000   1.0000   1.0000   1.0000   1.0000   0.0000   0.0000   0.0000
     0.0000   0.0000   0.0000   0.0000   0.0000   0.0000   0.0000   0.0000
     0.0000   0.0000   0.0000   0.0000   0.0000   0.0000   0.0000   0.0000
     0.0000   0.0000   0.0000   0.0000   0.0000   0.0000   0.0000   0.0000
     0.0000   0.0000   0.0000   0.0000   0.0000   0.0000   0.0000   0.0000
     0.0000   0.0000   0.0000   0.0000   0.0000   0.0000   0.0000   0.0000
     0.0000   0.0000   0.0000   0.0000   0.0000   0.0000   0.0000   0.0000
     0.0000   0.0000   0.0000   0.0000   0.0000   0.0000   0.0000   0.0000
     0.0000   0.0000   0.0000   0.0000   0.0000   0.0000   0.0000   0.0000
     0.0000   0.0000   0.0000   0.0000   0.0000   0.0000   0.0000   0.0000
     0.0000   0.0000   0.0000   0.0000   0.0000   0.0000   0.0000   0.0000
     0.0000   0.0000   0.0000   0.0000   0.0000   0.0000   0.0000   0.0000
     0.0000   0.0000   0.0000   0.0000   0.0000   0.0000   0.0000   0.0000
     0.0000   0.0000   0.0000   0.0000   0.0000   0.0000   0.0000   0.0000
     0.0000   0.0000   0.0000   0.0000   0.0000   0.0000   0.0000   0.0000
     0.0000   0.0000   0.0000   0.0000   0.0000   0.0000   0.0000   0.0000
     0.0000   0.0000   0.0000   0.0000   0.0000   0.0000   0.0000   0.0000
     0.0000   0.0000   0.0000   0.0000   0.0000   0.0000   0.0000   0.0000
     0.0000   0.0000   0.0000   0.0000   0.0000   0.0000   0.0000   0.0000
     0.0000   0.0000   0.0000   0.0000   0.0000   0.0000   0.0000   0.0000
     0.0000   0.0000   0.0000   0.0000   0.0000   0.0000   0.0000   0.0000
     0.0000   0.0000   0.0000   0.0000   0.0000   0.0000   0.0000   0.0000
     0.0000   0.0000   0.0000   0.0000   0.0000   0.0000   0.0000   0.0000
     0.0000   0.0000   0.0000   0.0000   0.0000   0.0000   0.0000   0.0000

          k =-0.1333-0.2309 0.0520 ( 14834 PWs)   bands (ev):

   -66.6737 -40.8579 -40.8188 -40.6897 -19.4139 -18.5027 -11.0567  -9.7363
    -9.2924  -8.8053  -7.9445  -6.8719  -6.5849  -3.8806  -3.4060  -3.3745
    -1.9626   0.7547   0.8510   2.8418   3.1869   3.3929   3.6186   4.0297
     5.4454   5.6185   6.2283   6.3986   7.1619   7.3509   7.9603   8.9786
     9.5223  10.7061  11.6406  11.8018  12.8796  12.9306  13.0462  13.1378
    14.4526  14.8684  15.0160  15.0914  15.4126  15.5287  16.1624  16.4797
    17.0971  17.7166  17.7927  18.0956  18.3334  18.6013  19.1580  19.4709
    19.5802  20.4899  20.6564  21.0599  21.2548  21.7553  21.7914  22.1656
    22.5619  22.6917  23.1004  23.2282  23.4800  23.9579  24.1317  24.2877
    24.8046  24.8239  25.2901  25.6233  25.7295  25.8161  26.8780  27.2606
    27.2935  27.4517  27.7530  27.8976  28.1180  28.3790  28.5690  28.6788
    28.9871  29.2026  29.3500  29.7921  30.1625  30.2298  30.4938  30.6015
    30.9628  31.2110  31.4285  31.5746  31.7679  31.9632  32.3334  32.5961
    33.1353  33.2686  33.3539  33.7716  34.1059  34.2685  34.3612  34.7842
    35.1348  35.6025  35.6632  36.2524  36.3042  36.4141  36.5193  37.0813
    37.4261  37.7822  38.0983  38.2832  38.4009  38.6730  38.9360  39.2708
    39.6490  40.1361  40.3036  40.6701  40.7720  40.9062  41.0460  41.4785
    41.7513  41.9359  42.2623  42.4986  42.8979  43.0293  43.3226  43.6111
    43.9239  44.0939  44.3478  44.6490  44.8488  45.0162  45.2109  45.5544
    45.8570  45.8947  46.0131  46.4229  46.7392  46.7813  47.2292  47.3184
    47.4786  47.7740  48.0341  48.3864  48.5284  48.6680  48.7925  49.1952
    49.4977  49.6788  49.9030  50.2248  50.5268  50.5879  50.8614  51.1346
    51.4247  51.7995  51.9935  52.5567  52.5707  52.9982  53.1467  53.3504
    53.4718  53.8160  53.9094  54.0146  54.2349  54.4673  54.8012  54.9526
    55.1350  55.2094  55.4828  55.6935  55.9031  56.0718  56.2663  56.4235

     occupation numbers 
     1.0000   1.0000   1.0000   1.0000   1.0000   1.0000   1.0000   1.0000
     1.0000   1.0000   1.0000   1.0000   1.0000   0.0000   0.0000   0.0000
     0.0000   0.0000   0.0000   0.0000   0.0000   0.0000   0.0000   0.0000
     0.0000   0.0000   0.0000   0.0000   0.0000   0.0000   0.0000   0.0000
     0.0000   0.0000   0.0000   0.0000   0.0000   0.0000   0.0000   0.0000
     0.0000   0.0000   0.0000   0.0000   0.0000   0.0000   0.0000   0.0000
     0.0000   0.0000   0.0000   0.0000   0.0000   0.0000   0.0000   0.0000
     0.0000   0.0000   0.0000   0.0000   0.0000   0.0000   0.0000   0.0000
     0.0000   0.0000   0.0000   0.0000   0.0000   0.0000   0.0000   0.0000
     0.0000   0.0000   0.0000   0.0000   0.0000   0.0000   0.0000   0.0000
     0.0000   0.0000   0.0000   0.0000   0.0000   0.0000   0.0000   0.0000
     0.0000   0.0000   0.0000   0.0000   0.0000   0.0000   0.0000   0.0000
     0.0000   0.0000   0.0000   0.0000   0.0000   0.0000   0.0000   0.0000
     0.0000   0.0000   0.0000   0.0000   0.0000   0.0000   0.0000   0.0000
     0.0000   0.0000   0.0000   0.0000   0.0000   0.0000   0.0000   0.0000
     0.0000   0.0000   0.0000   0.0000   0.0000   0.0000   0.0000   0.0000
     0.0000   0.0000   0.0000   0.0000   0.0000   0.0000   0.0000   0.0000
     0.0000   0.0000   0.0000   0.0000   0.0000   0.0000   0.0000   0.0000
     0.0000   0.0000   0.0000   0.0000   0.0000   0.0000   0.0000   0.0000
     0.0000   0.0000   0.0000   0.0000   0.0000   0.0000   0.0000   0.0000
     0.0000   0.0000   0.0000   0.0000   0.0000   0.0000   0.0000   0.0000
     0.0000   0.0000   0.0000   0.0000   0.0000   0.0000   0.0000   0.0000
     0.0000   0.0000   0.0000   0.0000   0.0000   0.0000   0.0000   0.0000
     0.0000   0.0000   0.0000   0.0000   0.0000   0.0000   0.0000   0.0000
     0.0000   0.0000   0.0000   0.0000   0.0000   0.0000   0.0000   0.0000

          k =-0.0667-0.1155 0.0446 ( 14891 PWs)   bands (ev):

   -66.6876 -40.8851 -40.6915 -40.6503 -19.9722 -18.7293 -11.4990  -9.0279
    -8.5188  -8.3888  -7.8106  -6.9904  -6.1196  -3.3330  -3.3160  -3.0479
    -2.7297   0.0039   0.1049   1.2897   2.4445   2.5813   3.9531   4.2629
     5.3835   5.5888   5.7766   6.2803   6.9074   6.9874   9.1650   9.3758
     9.7514  10.3867  10.7111  10.7305  12.1344  13.0357  14.4347  15.1003
    15.3742  15.6573  15.9670  16.1567  16.3443  16.9685  17.6297  17.9530
    17.9678  18.4339  18.5219  18.6525  18.7261  19.7755  19.8107  20.2626
    20.3643  20.8428  21.0347  21.3523  21.6171  21.6252  22.2072  22.3163
    22.5932  22.7609  23.0035  23.2285  23.5176  23.9115  23.9802  24.4676
    24.5906  24.7008  24.9047  25.0752  25.4163  25.5286  26.0540  26.1588
    26.3309  26.3472  26.5987  27.1415  27.4534  27.6259  27.8751  27.9517
    28.3369  28.5305  28.9267  29.1513  29.2734  29.3346  29.7371  29.7864
    30.2482  30.3493  30.9148  31.1695  31.3098  31.3706  31.6599  31.9163
    32.6199  33.0134  33.0424  33.2420  33.4300  33.5493  33.7437  34.1410
    34.5313  34.7686  34.8626  35.0169  35.9517  35.9750  36.2040  36.3402
    36.6808  37.0783  37.1993  37.3973  37.8166  38.0058  38.1835  38.3457
    38.8324  39.4127  39.7923  40.1155  40.2921  40.6387  40.9611  41.1300
    41.1854  41.5677  41.7946  41.9465  42.4569  42.5028  42.5378  43.0123
    43.2180  43.7151  43.8182  44.3154  44.3911  44.6626  44.7804  45.1551
    45.5489  45.7716  46.2252  46.2852  46.8272  46.9575  47.3076  47.4216
    47.8295  48.1516  48.6547  48.7116  49.1932  49.4616  49.7188  49.8829
    50.3638  50.6862  50.9642  51.1432  51.5166  51.8881  52.0380  52.3127
    52.5398  52.7905  53.0387  53.3415  53.5653  53.6963  54.1603  54.4396
    54.5480  54.8519  55.2016  55.3177  55.4679  55.6388  55.8334  56.1342
    56.2847  56.4437  56.8135  57.0898  57.2045  57.3801  57.5361  57.7071

     occupation numbers 
     1.0000   1.0000   1.0000   1.0000   1.0000   1.0000   1.0000   1.0000
     1.0000   1.0000   1.0000   1.0000   1.0000   0.0000   0.0000   0.0000
     0.0000   0.0000   0.0000   0.0000   0.0000   0.0000   0.0000   0.0000
     0.0000   0.0000   0.0000   0.0000   0.0000   0.0000   0.0000   0.0000
     0.0000   0.0000   0.0000   0.0000   0.0000   0.0000   0.0000   0.0000
     0.0000   0.0000   0.0000   0.0000   0.0000   0.0000   0.0000   0.0000
     0.0000   0.0000   0.0000   0.0000   0.0000   0.0000   0.0000   0.0000
     0.0000   0.0000   0.0000   0.0000   0.0000   0.0000   0.0000   0.0000
     0.0000   0.0000   0.0000   0.0000   0.0000   0.0000   0.0000   0.0000
     0.0000   0.0000   0.0000   0.0000   0.0000   0.0000   0.0000   0.0000
     0.0000   0.0000   0.0000   0.0000   0.0000   0.0000   0.0000   0.0000
     0.0000   0.0000   0.0000   0.0000   0.0000   0.0000   0.0000   0.0000
     0.0000   0.0000   0.0000   0.0000   0.0000   0.0000   0.0000   0.0000
     0.0000   0.0000   0.0000   0.0000   0.0000   0.0000   0.0000   0.0000
     0.0000   0.0000   0.0000   0.0000   0.0000   0.0000   0.0000   0.0000
     0.0000   0.0000   0.0000   0.0000   0.0000   0.0000   0.0000   0.0000
     0.0000   0.0000   0.0000   0.0000   0.0000   0.0000   0.0000   0.0000
     0.0000   0.0000   0.0000   0.0000   0.0000   0.0000   0.0000   0.0000
     0.0000   0.0000   0.0000   0.0000   0.0000   0.0000   0.0000   0.0000
     0.0000   0.0000   0.0000   0.0000   0.0000   0.0000   0.0000   0.0000
     0.0000   0.0000   0.0000   0.0000   0.0000   0.0000   0.0000   0.0000
     0.0000   0.0000   0.0000   0.0000   0.0000   0.0000   0.0000   0.0000
     0.0000   0.0000   0.0000   0.0000   0.0000   0.0000   0.0000   0.0000
     0.0000   0.0000   0.0000   0.0000   0.0000   0.0000   0.0000   0.0000
     0.0000   0.0000   0.0000   0.0000   0.0000   0.0000   0.0000   0.0000

          k = 0.0000 0.0000 0.0372 ( 14934 PWs)   bands (ev):

   -66.6931 -40.8960 -40.6372 -40.6372 -20.1785 -18.8130 -11.7262  -8.6012
    -8.6012  -7.7928  -7.4461  -7.4461  -6.0182  -3.0914  -3.0914  -2.8120
    -2.8120  -0.3417  -0.1572   0.4374   2.1830   2.3411   3.1230   4.8343
     4.8343   5.3432   5.9916   6.8631   6.8631   7.1585   9.4559  10.0955
    10.1791  10.1791  10.4918  10.4918  10.5983  12.3592  13.9433  14.2690
    14.9579  16.6628  17.2134  17.2134  18.3063  18.8366  18.8366  19.2801
    19.4741  19.5361  19.5361  19.6940  19.6940  19.8684  20.2384  20.5356
    20.5356  20.5594  21.4635  21.4635  21.6701  21.8786  21.8786  21.9288
    22.1979  22.1979  22.2320  22.6385  22.6385  22.8115  23.1713  24.2863
    24.3737  24.3737  24.3802  24.3802  24.6853  25.1986  25.4787  25.4787
    25.6135  25.6135  26.0019  26.6575  27.2671  27.2671  27.7829  27.7829
    27.8748  28.4465  28.7212  28.9470  28.9470  29.4475  29.5733  29.5734
    30.6221  30.8308  30.8308  31.0112  31.3627  31.3627  31.5661  31.5661
    31.6615  32.3844  33.0228  33.5218  33.6428  33.6428  33.9890  33.9890
    34.4261  34.7375  35.1373  35.1373  35.9629  35.9629  36.0264  36.6475
    36.6475  36.7241  37.1647  37.2692  37.2692  37.6089  38.2375  38.2375
    38.3837  38.9909  38.9909  39.7790  40.0891  40.0891  40.4015  40.5761
    40.5761  41.0040  41.4049  41.4049  41.7558  41.7558  42.1218  42.1855
    42.5870  42.8202  42.8202  43.8249  44.7340  44.7340  45.4771  45.5073
    45.6432  45.6432  46.0737  46.5683  46.5683  47.0277  47.0277  47.2389
    47.5873  48.3021  49.1890  49.4020  49.4020  49.8229  49.8229  50.2960
    50.8529  50.8529  51.0814  51.7277  51.7277  52.1885  52.1885  52.4706
    52.8382  53.1048  53.1048  53.8603  54.3452  54.3452  54.8758  54.8972
    55.4285  55.6708  55.6708  56.2685  56.6909  56.6909  57.0898  57.0926
    57.0926  57.5537  57.9306  57.9306  58.6763  58.8006  58.8006  59.0535

     occupation numbers 
     1.0000   1.0000   1.0000   1.0000   1.0000   1.0000   1.0000   1.0000
     1.0000   1.0000   1.0000   1.0000   1.0000   0.0000   0.0000   0.0000
     0.0000   0.0000   0.0000   0.0000   0.0000   0.0000   0.0000   0.0000
     0.0000   0.0000   0.0000   0.0000   0.0000   0.0000   0.0000   0.0000
     0.0000   0.0000   0.0000   0.0000   0.0000   0.0000   0.0000   0.0000
     0.0000   0.0000   0.0000   0.0000   0.0000   0.0000   0.0000   0.0000
     0.0000   0.0000   0.0000   0.0000   0.0000   0.0000   0.0000   0.0000
     0.0000   0.0000   0.0000   0.0000   0.0000   0.0000   0.0000   0.0000
     0.0000   0.0000   0.0000   0.0000   0.0000   0.0000   0.0000   0.0000
     0.0000   0.0000   0.0000   0.0000   0.0000   0.0000   0.0000   0.0000
     0.0000   0.0000   0.0000   0.0000   0.0000   0.0000   0.0000   0.0000
     0.0000   0.0000   0.0000   0.0000   0.0000   0.0000   0.0000   0.0000
     0.0000   0.0000   0.0000   0.0000   0.0000   0.0000   0.0000   0.0000
     0.0000   0.0000   0.0000   0.0000   0.0000   0.0000   0.0000   0.0000
     0.0000   0.0000   0.0000   0.0000   0.0000   0.0000   0.0000   0.0000
     0.0000   0.0000   0.0000   0.0000   0.0000   0.0000   0.0000   0.0000
     0.0000   0.0000   0.0000   0.0000   0.0000   0.0000   0.0000   0.0000
     0.0000   0.0000   0.0000   0.0000   0.0000   0.0000   0.0000   0.0000
     0.0000   0.0000   0.0000   0.0000   0.0000   0.0000   0.0000   0.0000
     0.0000   0.0000   0.0000   0.0000   0.0000   0.0000   0.0000   0.0000
     0.0000   0.0000   0.0000   0.0000   0.0000   0.0000   0.0000   0.0000
     0.0000   0.0000   0.0000   0.0000   0.0000   0.0000   0.0000   0.0000
     0.0000   0.0000   0.0000   0.0000   0.0000   0.0000   0.0000   0.0000
     0.0000   0.0000   0.0000   0.0000   0.0000   0.0000   0.0000   0.0000
     0.0000   0.0000   0.0000   0.0000   0.0000   0.0000   0.0000   0.0000

          k = 0.0667 0.1155 0.0297 ( 14902 PWs)   bands (ev):

   -66.6876 -40.8851 -40.6915 -40.6503 -19.9722 -18.7293 -11.4990  -9.0279
    -8.5188  -8.3888  -7.8106  -6.9904  -6.1196  -3.3330  -3.3160  -3.0479
    -2.7297   0.0039   0.1049   1.2897   2.4444   2.5814   3.9531   4.2629
     5.3834   5.5890   5.7758   6.2815   6.9075   6.9871   9.1655   9.3719
     9.7505  10.3867  10.7114  10.7398  12.1378  13.0070  14.4057  15.2498
    15.3767  15.6614  15.9336  16.1368  16.3446  16.8225  17.5685  17.9561
    17.9647  18.4565  18.5240  18.6663  19.0288  19.7758  19.8111  20.2589
    20.3629  20.5295  21.0351  21.3476  21.6167  21.6258  22.1815  22.3163
    22.5988  22.7837  23.1131  23.2229  23.6947  23.9113  24.0169  24.4654
    24.5890  24.7010  24.9011  24.9729  25.4148  25.4561  26.0552  26.0780
    26.3309  26.3552  26.5549  27.1493  27.4396  27.6134  27.9025  27.9648
    28.3405  28.6058  28.9163  29.2251  29.2623  29.4081  29.7344  29.8083
    30.2349  30.3044  30.8372  31.1179  31.3810  31.4319  31.6493  31.8829
    32.5640  32.9970  33.0776  33.2231  33.3359  33.5804  33.7953  34.0925
    34.4671  34.7535  34.9409  35.0954  35.8239  35.9326  36.3089  36.4057
    36.7432  37.1028  37.1839  37.3397  37.8353  38.1095  38.2839  38.4250
    38.7842  39.3771  39.5578  40.0125  40.1141  40.6332  40.9547  41.1154
    41.1978  41.6724  41.8788  42.0568  42.3872  42.4878  42.6149  42.8840
    43.4297  43.7346  43.9011  44.2959  44.4875  44.5176  44.7502  45.0406
    45.7003  45.9530  46.1167  46.4379  46.6565  46.9383  47.1060  47.3946
    47.8594  48.0393  48.4267  48.7991  49.2795  49.3705  49.8027  50.1019
    50.3068  50.5567  51.0912  51.3003  51.6218  51.7759  52.1767  52.3456
    52.6467  52.7557  52.8562  53.0830  53.6645  53.8008  54.2184  54.4518
    54.5788  54.8682  54.9704  55.3257  55.4644  55.7480  55.8228  56.0890
    56.2358  56.4272  56.8475  57.0161  57.2541  57.4596  57.5312  57.5924

     occupation numbers 
     1.0000   1.0000   1.0000   1.0000   1.0000   1.0000   1.0000   1.0000
     1.0000   1.0000   1.0000   1.0000   1.0000   0.0000   0.0000   0.0000
     0.0000   0.0000   0.0000   0.0000   0.0000   0.0000   0.0000   0.0000
     0.0000   0.0000   0.0000   0.0000   0.0000   0.0000   0.0000   0.0000
     0.0000   0.0000   0.0000   0.0000   0.0000   0.0000   0.0000   0.0000
     0.0000   0.0000   0.0000   0.0000   0.0000   0.0000   0.0000   0.0000
     0.0000   0.0000   0.0000   0.0000   0.0000   0.0000   0.0000   0.0000
     0.0000   0.0000   0.0000   0.0000   0.0000   0.0000   0.0000   0.0000
     0.0000   0.0000   0.0000   0.0000   0.0000   0.0000   0.0000   0.0000
     0.0000   0.0000   0.0000   0.0000   0.0000   0.0000   0.0000   0.0000
     0.0000   0.0000   0.0000   0.0000   0.0000   0.0000   0.0000   0.0000
     0.0000   0.0000   0.0000   0.0000   0.0000   0.0000   0.0000   0.0000
     0.0000   0.0000   0.0000   0.0000   0.0000   0.0000   0.0000   0.0000
     0.0000   0.0000   0.0000   0.0000   0.0000   0.0000   0.0000   0.0000
     0.0000   0.0000   0.0000   0.0000   0.0000   0.0000   0.0000   0.0000
     0.0000   0.0000   0.0000   0.0000   0.0000   0.0000   0.0000   0.0000
     0.0000   0.0000   0.0000   0.0000   0.0000   0.0000   0.0000   0.0000
     0.0000   0.0000   0.0000   0.0000   0.0000   0.0000   0.0000   0.0000
     0.0000   0.0000   0.0000   0.0000   0.0000   0.0000   0.0000   0.0000
     0.0000   0.0000   0.0000   0.0000   0.0000   0.0000   0.0000   0.0000
     0.0000   0.0000   0.0000   0.0000   0.0000   0.0000   0.0000   0.0000
     0.0000   0.0000   0.0000   0.0000   0.0000   0.0000   0.0000   0.0000
     0.0000   0.0000   0.0000   0.0000   0.0000   0.0000   0.0000   0.0000
     0.0000   0.0000   0.0000   0.0000   0.0000   0.0000   0.0000   0.0000
     0.0000   0.0000   0.0000   0.0000   0.0000   0.0000   0.0000   0.0000

          k = 0.1333 0.2309 0.0223 ( 14829 PWs)   bands (ev):

   -66.6737 -40.8579 -40.8188 -40.6897 -19.4139 -18.5027 -11.0567  -9.7363
    -9.2924  -8.8053  -7.9445  -6.8719  -6.5849  -3.8806  -3.4060  -3.3745
    -1.9626   0.7547   0.8510   2.8417   3.1872   3.3928   3.6186   4.0298
     5.4456   5.6183   6.2273   6.3990   7.1619   7.3530   7.9593   8.9792
     9.5177  10.7087  11.6635  11.7853  12.8796  12.9306  13.0460  13.1386
    14.3670  14.8947  15.0158  15.1189  15.4121  15.5539  16.3514  16.4912
    16.9186  17.5683  17.7778  18.1085  18.2868  18.5906  19.1636  19.5766
    19.9534  20.4891  20.5486  21.1040  21.2452  21.5827  21.7882  21.7989
    22.5570  22.6819  23.1277  23.2216  23.8648  23.9527  24.1794  24.3337
    24.8099  24.9807  25.2987  25.5511  25.5776  25.8443  26.5311  27.2837
    27.3845  27.4149  27.7281  27.9674  28.0156  28.4459  28.5480  28.7591
    28.8946  29.1439  29.6146  29.8142  30.1709  30.3115  30.5151  30.6326
    30.9162  31.1534  31.2343  31.5470  31.9116  32.0550  32.3126  32.7859
    32.9888  33.2058  33.3562  33.6656  33.9800  34.3166  34.3738  34.7638
    35.1045  35.3127  35.7606  36.1260  36.2234  36.6041  36.9014  37.2575
    37.4466  37.8368  38.1084  38.3693  38.5255  38.7537  38.8547  39.1416
    39.4175  39.9145  40.3355  40.4519  40.7180  40.8403  40.9661  41.5042
    41.9397  41.9681  42.1574  42.7029  42.9591  43.1188  43.2714  43.4188
    44.0203  44.2019  44.5944  44.6505  44.7729  44.9521  45.4212  45.6739
    45.7852  45.9695  46.1064  46.6153  46.6618  46.7640  46.9938  47.1601
    47.3185  47.6835  47.8404  48.1486  48.3166  48.6239  48.7897  49.2348
    49.4062  49.9207  49.9730  50.5135  50.5635  50.6128  50.9646  51.3501
    51.6110  51.7754  52.2842  52.3950  52.5881  52.8576  53.2246  53.2874
    53.5489  53.5825  53.7474  53.9834  54.2561  54.3336  54.9096  55.0690
    55.1003  55.1721  55.4437  55.6197  55.8036  56.0651  56.1734  56.2982

     occupation numbers 
     1.0000   1.0000   1.0000   1.0000   1.0000   1.0000   1.0000   1.0000
     1.0000   1.0000   1.0000   1.0000   1.0000   0.0000   0.0000   0.0000
     0.0000   0.0000   0.0000   0.0000   0.0000   0.0000   0.0000   0.0000
     0.0000   0.0000   0.0000   0.0000   0.0000   0.0000   0.0000   0.0000
     0.0000   0.0000   0.0000   0.0000   0.0000   0.0000   0.0000   0.0000
     0.0000   0.0000   0.0000   0.0000   0.0000   0.0000   0.0000   0.0000
     0.0000   0.0000   0.0000   0.0000   0.0000   0.0000   0.0000   0.0000
     0.0000   0.0000   0.0000   0.0000   0.0000   0.0000   0.0000   0.0000
     0.0000   0.0000   0.0000   0.0000   0.0000   0.0000   0.0000   0.0000
     0.0000   0.0000   0.0000   0.0000   0.0000   0.0000   0.0000   0.0000
     0.0000   0.0000   0.0000   0.0000   0.0000   0.0000   0.0000   0.0000
     0.0000   0.0000   0.0000   0.0000   0.0000   0.0000   0.0000   0.0000
     0.0000   0.0000   0.0000   0.0000   0.0000   0.0000   0.0000   0.0000
     0.0000   0.0000   0.0000   0.0000   0.0000   0.0000   0.0000   0.0000
     0.0000   0.0000   0.0000   0.0000   0.0000   0.0000   0.0000   0.0000
     0.0000   0.0000   0.0000   0.0000   0.0000   0.0000   0.0000   0.0000
     0.0000   0.0000   0.0000   0.0000   0.0000   0.0000   0.0000   0.0000
     0.0000   0.0000   0.0000   0.0000   0.0000   0.0000   0.0000   0.0000
     0.0000   0.0000   0.0000   0.0000   0.0000   0.0000   0.0000   0.0000
     0.0000   0.0000   0.0000   0.0000   0.0000   0.0000   0.0000   0.0000
     0.0000   0.0000   0.0000   0.0000   0.0000   0.0000   0.0000   0.0000
     0.0000   0.0000   0.0000   0.0000   0.0000   0.0000   0.0000   0.0000
     0.0000   0.0000   0.0000   0.0000   0.0000   0.0000   0.0000   0.0000
     0.0000   0.0000   0.0000   0.0000   0.0000   0.0000   0.0000   0.0000
     0.0000   0.0000   0.0000   0.0000   0.0000   0.0000   0.0000   0.0000

          k = 0.2000 0.3464 0.0149 ( 14813 PWs)   bands (ev):

   -66.6579 -40.9395 -40.8269 -40.7544 -18.6853 -18.2047 -11.1446 -10.2834
    -9.7063  -9.3661  -8.2471  -7.1763  -6.7479  -3.9184  -3.2897  -3.0216
    -1.4118   1.7518   1.9384   2.5891   3.4191   3.7831   4.2991   4.5994
     5.2776   5.9562   5.9974   6.5761   6.7329   8.4248   8.5312   9.2681
     9.8589  10.5546  10.5894  10.8910  11.0421  11.9201  12.6292  12.9151
    13.0658  13.2595  13.4227  13.8570  15.1219  15.8514  16.0673  16.2997
    16.4300  16.9112  17.0209  18.0646  18.2468  18.8969  19.0587  19.1385
    19.3844  19.9096  20.1965  20.9294  21.5994  21.7141  21.9386  22.2243
    22.4529  22.5874  22.7065  23.2054  23.3595  23.4409  24.1423  24.5738
    24.9251  25.1237  25.3191  25.5995  25.6625  25.8749  26.0313  26.5680
    26.8353  27.3480  27.5218  28.0218  28.2103  28.4163  28.8930  29.0983
    29.1791  29.8416  30.0173  30.3263  30.7351  31.0286  31.4706  31.9467
    32.2719  32.5230  32.6160  33.0802  33.2945  33.4907  34.1256  34.2570
    34.4202  34.5656  34.8001  35.1273  35.1346  35.6647  35.9807  36.0437
    36.3976  36.6157  36.8472  37.1947  37.3627  37.5081  37.5581  37.9802
    38.1129  38.4072  38.5121  38.8053  39.0957  39.1948  39.2874  39.5117
    39.7862  40.0673  40.0901  40.4415  40.7281  40.8106  41.1527  41.5192
    41.6017  41.7133  42.2459  42.3912  42.6482  42.9046  43.2847  43.4256
    43.4746  43.6750  43.8189  44.1234  44.2949  44.5895  44.9276  45.5088
    45.6653  45.9478  46.2304  46.5953  46.7206  46.7833  47.1773  47.5105
    47.5788  47.9533  48.3402  48.4439  48.8722  48.9817  49.3249  49.4227
    49.5970  49.7735  50.0165  50.1120  50.3919  50.5646  50.6696  51.1534
    51.2330  51.4690  51.6267  51.7727  51.9437  52.1919  52.4746  52.5195
    52.8666  53.2427  53.4047  53.6390  53.7712  53.8666  54.1147  54.2830
    54.5631  54.7085  54.7758  55.3254  55.5133  55.6213  55.8155  56.0818

     occupation numbers 
     1.0000   1.0000   1.0000   1.0000   1.0000   1.0000   1.0000   1.0000
     1.0000   1.0000   1.0000   1.0000   1.0000   0.0000   0.0000   0.0000
     0.0000   0.0000   0.0000   0.0000   0.0000   0.0000   0.0000   0.0000
     0.0000   0.0000   0.0000   0.0000   0.0000   0.0000   0.0000   0.0000
     0.0000   0.0000   0.0000   0.0000   0.0000   0.0000   0.0000   0.0000
     0.0000   0.0000   0.0000   0.0000   0.0000   0.0000   0.0000   0.0000
     0.0000   0.0000   0.0000   0.0000   0.0000   0.0000   0.0000   0.0000
     0.0000   0.0000   0.0000   0.0000   0.0000   0.0000   0.0000   0.0000
     0.0000   0.0000   0.0000   0.0000   0.0000   0.0000   0.0000   0.0000
     0.0000   0.0000   0.0000   0.0000   0.0000   0.0000   0.0000   0.0000
     0.0000   0.0000   0.0000   0.0000   0.0000   0.0000   0.0000   0.0000
     0.0000   0.0000   0.0000   0.0000   0.0000   0.0000   0.0000   0.0000
     0.0000   0.0000   0.0000   0.0000   0.0000   0.0000   0.0000   0.0000
     0.0000   0.0000   0.0000   0.0000   0.0000   0.0000   0.0000   0.0000
     0.0000   0.0000   0.0000   0.0000   0.0000   0.0000   0.0000   0.0000
     0.0000   0.0000   0.0000   0.0000   0.0000   0.0000   0.0000   0.0000
     0.0000   0.0000   0.0000   0.0000   0.0000   0.0000   0.0000   0.0000
     0.0000   0.0000   0.0000   0.0000   0.0000   0.0000   0.0000   0.0000
     0.0000   0.0000   0.0000   0.0000   0.0000   0.0000   0.0000   0.0000
     0.0000   0.0000   0.0000   0.0000   0.0000   0.0000   0.0000   0.0000
     0.0000   0.0000   0.0000   0.0000   0.0000   0.0000   0.0000   0.0000
     0.0000   0.0000   0.0000   0.0000   0.0000   0.0000   0.0000   0.0000
     0.0000   0.0000   0.0000   0.0000   0.0000   0.0000   0.0000   0.0000
     0.0000   0.0000   0.0000   0.0000   0.0000   0.0000   0.0000   0.0000
     0.0000   0.0000   0.0000   0.0000   0.0000   0.0000   0.0000   0.0000

          k = 0.2667 0.4619 0.0074 ( 14758 PWs)   bands (ev):

   -66.6469 -40.9855 -40.8376 -40.8052 -18.0880 -17.9486 -11.2137 -11.1682
    -9.6190  -9.1928  -9.1803  -7.7458  -6.3592  -3.7837  -2.8167  -2.8024
    -1.1124   1.4373   2.3136   3.0465   3.7406   4.2621   5.3855   5.4010
     5.7846   6.2375   6.7201   6.9315   7.3579   7.7630   8.2631   8.5461
     8.5532   9.2261   9.7973  10.2644  10.6998  11.2176  11.2796  11.8017
    12.6448  12.7063  13.7360  14.2094  14.7393  15.2443  15.2545  15.7629
    15.8884  16.6870  16.9264  17.9887  18.3571  18.8347  18.9511  19.1902
    19.7068  19.8513  20.1024  20.7232  21.4606  21.5099  22.3513  22.6385
    22.7871  22.9169  23.3027  23.9266  24.1061  24.2030  24.4044  24.8144
    24.9756  25.0849  25.1881  25.5966  25.9231  26.1805  26.6353  26.7891
    26.9382  27.2547  27.7003  27.9210  28.0197  28.9149  29.3659  29.3844
    29.7119  30.0220  30.1956  30.3144  30.9657  31.1300  31.2482  31.8847
    32.1858  32.4852  32.8118  32.9366  33.0201  33.4636  33.5865  34.0832
    34.3981  34.4823  34.8450  35.1307  35.4006  35.6625  35.7690  35.8108
    36.1610  36.8000  36.9725  37.7308  37.8366  38.0183  38.4387  39.0723
    39.2524  39.3666  39.5199  39.7507  39.8807  39.9100  40.0727  40.3067
    40.3374  40.6144  40.7407  41.2279  41.3519  41.6141  41.7252  41.9719
    42.1041  42.4117  42.4746  42.9757  43.0846  43.3509  43.4700  43.7283
    44.0182  44.4086  44.5750  44.8792  45.2195  45.3862  45.4867  45.7274
    46.0373  46.2451  46.8142  47.1501  47.3330  47.4138  47.6171  47.9475
    48.3069  48.4295  48.5998  48.7087  48.9427  49.0116  49.1052  49.4384
    49.5091  49.6977  49.8183  49.9085  50.3250  50.3901  50.6158  50.7579
    51.1278  51.4828  51.5222  51.5942  51.7093  51.9451  52.2265  52.4705
    52.4821  52.7465  53.0282  53.0884  53.3924  53.4522  53.6467  53.7030
    53.7791  54.0058  54.2194  54.4604  54.5908  54.6410  54.9416  55.0522

     occupation numbers 
     1.0000   1.0000   1.0000   1.0000   1.0000   1.0000   1.0000   1.0000
     1.0000   1.0000   1.0000   1.0000   1.0000   0.0000   0.0000   0.0000
     0.0000   0.0000   0.0000   0.0000   0.0000   0.0000   0.0000   0.0000
     0.0000   0.0000   0.0000   0.0000   0.0000   0.0000   0.0000   0.0000
     0.0000   0.0000   0.0000   0.0000   0.0000   0.0000   0.0000   0.0000
     0.0000   0.0000   0.0000   0.0000   0.0000   0.0000   0.0000   0.0000
     0.0000   0.0000   0.0000   0.0000   0.0000   0.0000   0.0000   0.0000
     0.0000   0.0000   0.0000   0.0000   0.0000   0.0000   0.0000   0.0000
     0.0000   0.0000   0.0000   0.0000   0.0000   0.0000   0.0000   0.0000
     0.0000   0.0000   0.0000   0.0000   0.0000   0.0000   0.0000   0.0000
     0.0000   0.0000   0.0000   0.0000   0.0000   0.0000   0.0000   0.0000
     0.0000   0.0000   0.0000   0.0000   0.0000   0.0000   0.0000   0.0000
     0.0000   0.0000   0.0000   0.0000   0.0000   0.0000   0.0000   0.0000
     0.0000   0.0000   0.0000   0.0000   0.0000   0.0000   0.0000   0.0000
     0.0000   0.0000   0.0000   0.0000   0.0000   0.0000   0.0000   0.0000
     0.0000   0.0000   0.0000   0.0000   0.0000   0.0000   0.0000   0.0000
     0.0000   0.0000   0.0000   0.0000   0.0000   0.0000   0.0000   0.0000
     0.0000   0.0000   0.0000   0.0000   0.0000   0.0000   0.0000   0.0000
     0.0000   0.0000   0.0000   0.0000   0.0000   0.0000   0.0000   0.0000
     0.0000   0.0000   0.0000   0.0000   0.0000   0.0000   0.0000   0.0000
     0.0000   0.0000   0.0000   0.0000   0.0000   0.0000   0.0000   0.0000
     0.0000   0.0000   0.0000   0.0000   0.0000   0.0000   0.0000   0.0000
     0.0000   0.0000   0.0000   0.0000   0.0000   0.0000   0.0000   0.0000
     0.0000   0.0000   0.0000   0.0000   0.0000   0.0000   0.0000   0.0000
     0.0000   0.0000   0.0000   0.0000   0.0000   0.0000   0.0000   0.0000

          k = 0.3333 0.5774 0.0000 ( 14772 PWs)   bands (ev):

   -66.6434 -40.9567 -40.9074 -40.7984 -17.8857 -17.8520 -11.5453 -10.6799
   -10.1581  -9.5376  -8.9048  -8.1349  -5.9734  -4.1909  -2.9039  -2.2691
    -0.8689   1.3160   1.6215   3.6417   4.6096   5.3663   5.6963   5.9391
     6.0191   6.3757   6.9432   7.1904   7.4505   7.4614   7.4759   7.8193
     8.3876   9.1619   9.4288   9.6458   9.8567  10.5270  10.9047  11.6750
    12.5726  12.8038  13.4420  13.4422  13.7571  14.1577  14.5758  15.9784
    17.4329  17.6613  17.8418  17.9703  18.1013  18.9982  19.0134  19.5308
    19.6200  20.0567  20.9255  21.1620  21.3015  21.3993  21.9833  22.0405
    22.3871  22.6146  23.6354  23.6518  23.7729  23.8062  23.9134  25.1979
    25.3853  25.9135  26.4137  26.6091  26.6413  26.8869  27.1674  27.2398
    27.3657  27.7236  27.7847  27.9081  28.6629  28.9876  29.0477  29.0883
    29.3847  29.5750  30.2700  30.3998  30.4800  30.8242  31.0158  31.5892
    31.8833  32.1669  32.4979  32.5251  32.5311  33.0532  33.0877  33.1004
    33.5053  33.5719  34.5222  34.7932  35.0899  35.7550  35.7574  35.9536
    36.6706  36.6862  36.7535  36.8350  37.6662  37.9262  38.3451  38.5192
    38.6399  38.7170  38.9957  39.2328  39.3406  39.4270  39.5225  40.7550
    41.3544  41.7859  41.9973  42.2851  42.5224  42.5934  43.0381  43.0593
    43.4722  43.6958  43.7633  44.1788  44.7779  45.0412  45.3813  45.5617
    45.6060  45.6933  45.7690  45.9204  45.9217  46.0538  46.2978  46.7626
    46.8218  46.9705  46.9779  46.9829  47.1306  47.6192  47.6282  47.8091
    48.0603  48.1493  48.2619  48.3407  48.5174  48.5204  48.7118  48.8259
    49.0350  49.0823  49.5225  49.5963  49.8903  49.9788  50.0936  50.3316
    50.5532  50.6107  50.8475  51.1489  51.2016  51.2983  51.5063  51.7282
    51.7620  52.0205  52.0687  52.5255  52.5402  52.5589  52.9506  52.9923
    53.0299  53.2452  53.3801  53.9232  54.0860  54.3679  54.5279  54.6276

     occupation numbers 
     1.0000   1.0000   1.0000   1.0000   1.0000   1.0000   1.0000   1.0000
     1.0000   1.0000   1.0000   1.0000   1.0000   0.0000   0.0000   0.0000
     0.0000   0.0000   0.0000   0.0000   0.0000   0.0000   0.0000   0.0000
     0.0000   0.0000   0.0000   0.0000   0.0000   0.0000   0.0000   0.0000
     0.0000   0.0000   0.0000   0.0000   0.0000   0.0000   0.0000   0.0000
     0.0000   0.0000   0.0000   0.0000   0.0000   0.0000   0.0000   0.0000
     0.0000   0.0000   0.0000   0.0000   0.0000   0.0000   0.0000   0.0000
     0.0000   0.0000   0.0000   0.0000   0.0000   0.0000   0.0000   0.0000
     0.0000   0.0000   0.0000   0.0000   0.0000   0.0000   0.0000   0.0000
     0.0000   0.0000   0.0000   0.0000   0.0000   0.0000   0.0000   0.0000
     0.0000   0.0000   0.0000   0.0000   0.0000   0.0000   0.0000   0.0000
     0.0000   0.0000   0.0000   0.0000   0.0000   0.0000   0.0000   0.0000
     0.0000   0.0000   0.0000   0.0000   0.0000   0.0000   0.0000   0.0000
     0.0000   0.0000   0.0000   0.0000   0.0000   0.0000   0.0000   0.0000
     0.0000   0.0000   0.0000   0.0000   0.0000   0.0000   0.0000   0.0000
     0.0000   0.0000   0.0000   0.0000   0.0000   0.0000   0.0000   0.0000
     0.0000   0.0000   0.0000   0.0000   0.0000   0.0000   0.0000   0.0000
     0.0000   0.0000   0.0000   0.0000   0.0000   0.0000   0.0000   0.0000
     0.0000   0.0000   0.0000   0.0000   0.0000   0.0000   0.0000   0.0000
     0.0000   0.0000   0.0000   0.0000   0.0000   0.0000   0.0000   0.0000
     0.0000   0.0000   0.0000   0.0000   0.0000   0.0000   0.0000   0.0000
     0.0000   0.0000   0.0000   0.0000   0.0000   0.0000   0.0000   0.0000
     0.0000   0.0000   0.0000   0.0000   0.0000   0.0000   0.0000   0.0000
     0.0000   0.0000   0.0000   0.0000   0.0000   0.0000   0.0000   0.0000
     0.0000   0.0000   0.0000   0.0000   0.0000   0.0000   0.0000   0.0000

          k = 0.2667 0.4619 0.0000 ( 14760 PWs)   bands (ev):

   -66.6469 -40.9855 -40.8376 -40.8052 -18.0880 -17.9486 -11.2137 -11.1682
    -9.6190  -9.1928  -9.1803  -7.7458  -6.3592  -3.7837  -2.8167  -2.8024
    -1.1124   1.4373   2.3136   3.0465   3.7406   4.2621   5.3855   5.4010
     5.7846   6.2375   6.7201   6.9315   7.3579   7.7630   8.2631   8.5461
     8.5532   9.2261   9.7973  10.2644  10.6997  11.2175  11.2796  11.8018
    12.6451  12.7062  13.7359  14.2092  14.7395  15.2439  15.2544  15.7627
    15.8898  16.6862  16.9265  17.9877  18.3578  18.8324  18.9508  19.1937
    19.7044  19.8551  20.1092  20.7092  21.4724  21.4967  22.3514  22.6749
    22.8268  22.8452  23.2966  23.9865  24.0561  24.1988  24.4006  24.8278
    24.9744  25.0936  25.1778  25.5915  25.9322  26.1598  26.6337  26.7877
    26.9412  27.2554  27.8101  27.8172  28.0286  28.9158  29.3655  29.4043
    29.7033  30.0215  30.1836  30.2984  30.9610  31.1298  31.2486  31.8994
    32.1833  32.4838  32.8221  32.9784  32.9933  33.4880  33.5613  34.0683
    34.4084  34.4542  34.8433  35.1511  35.5178  35.5581  35.7656  35.7808
    36.1581  36.7984  36.9931  37.7362  37.8210  38.0112  38.4611  39.0834
    39.2777  39.4149  39.4330  39.7602  39.8824  39.9095  40.0661  40.3104
    40.3222  40.6054  40.7499  41.2289  41.3706  41.6166  41.7206  42.0137
    42.0453  42.3970  42.4756  43.0025  43.0734  43.3865  43.4272  43.7442
    44.0034  44.4150  44.5697  44.8674  45.2735  45.3858  45.4611  45.7370
    46.0076  46.2403  46.8471  47.1509  47.3527  47.4259  47.5492  47.9451
    48.3579  48.4138  48.6087  48.7049  48.9444  49.0641  49.0693  49.4723
    49.4752  49.6471  49.8077  49.9035  50.3333  50.3891  50.6257  50.7368
    51.1348  51.4816  51.5654  51.5941  51.6985  51.9319  52.2274  52.4718
    52.4843  52.7311  53.0186  53.1343  53.4037  53.4286  53.6647  53.6957
    53.7721  54.0102  54.2836  54.4371  54.5799  54.6155  54.9506  55.0492

     occupation numbers 
     1.0000   1.0000   1.0000   1.0000   1.0000   1.0000   1.0000   1.0000
     1.0000   1.0000   1.0000   1.0000   1.0000   0.0000   0.0000   0.0000
     0.0000   0.0000   0.0000   0.0000   0.0000   0.0000   0.0000   0.0000
     0.0000   0.0000   0.0000   0.0000   0.0000   0.0000   0.0000   0.0000
     0.0000   0.0000   0.0000   0.0000   0.0000   0.0000   0.0000   0.0000
     0.0000   0.0000   0.0000   0.0000   0.0000   0.0000   0.0000   0.0000
     0.0000   0.0000   0.0000   0.0000   0.0000   0.0000   0.0000   0.0000
     0.0000   0.0000   0.0000   0.0000   0.0000   0.0000   0.0000   0.0000
     0.0000   0.0000   0.0000   0.0000   0.0000   0.0000   0.0000   0.0000
     0.0000   0.0000   0.0000   0.0000   0.0000   0.0000   0.0000   0.0000
     0.0000   0.0000   0.0000   0.0000   0.0000   0.0000   0.0000   0.0000
     0.0000   0.0000   0.0000   0.0000   0.0000   0.0000   0.0000   0.0000
     0.0000   0.0000   0.0000   0.0000   0.0000   0.0000   0.0000   0.0000
     0.0000   0.0000   0.0000   0.0000   0.0000   0.0000   0.0000   0.0000
     0.0000   0.0000   0.0000   0.0000   0.0000   0.0000   0.0000   0.0000
     0.0000   0.0000   0.0000   0.0000   0.0000   0.0000   0.0000   0.0000
     0.0000   0.0000   0.0000   0.0000   0.0000   0.0000   0.0000   0.0000
     0.0000   0.0000   0.0000   0.0000   0.0000   0.0000   0.0000   0.0000
     0.0000   0.0000   0.0000   0.0000   0.0000   0.0000   0.0000   0.0000
     0.0000   0.0000   0.0000   0.0000   0.0000   0.0000   0.0000   0.0000
     0.0000   0.0000   0.0000   0.0000   0.0000   0.0000   0.0000   0.0000
     0.0000   0.0000   0.0000   0.0000   0.0000   0.0000   0.0000   0.0000
     0.0000   0.0000   0.0000   0.0000   0.0000   0.0000   0.0000   0.0000
     0.0000   0.0000   0.0000   0.0000   0.0000   0.0000   0.0000   0.0000
     0.0000   0.0000   0.0000   0.0000   0.0000   0.0000   0.0000   0.0000

          k = 0.2000 0.3464 0.0000 ( 14811 PWs)   bands (ev):

   -66.6579 -40.9395 -40.8269 -40.7544 -18.6853 -18.2047 -11.1446 -10.2834
    -9.7063  -9.3661  -8.2471  -7.1763  -6.7479  -3.9184  -3.2897  -3.0216
    -1.4118   1.7518   1.9384   2.5891   3.4191   3.7831   4.2992   4.5994
     5.2776   5.9562   5.9973   6.5761   6.7328   8.4249   8.5315   9.2678
     9.8586  10.5545  10.5895  10.8910  11.0420  11.9212  12.6289  12.9163
    13.0651  13.2597  13.4193  13.8590  15.1210  15.8558  16.0658  16.2965
    16.4312  16.9125  17.0130  18.1285  18.2066  18.8963  19.0597  19.1189
    19.3619  19.9076  20.1965  20.9793  21.6082  21.7053  21.9479  22.2360
    22.5416  22.5564  22.5844  23.2104  23.3692  23.4150  24.1390  24.5976
    24.9580  25.1069  25.2977  25.6154  25.6552  25.9458  25.9466  26.7172
    26.8110  27.2148  27.5296  28.0287  28.2132  28.4374  28.9446  29.0116
    29.1547  29.8873  30.0054  30.2857  30.8267  31.0535  31.4000  32.0320
    32.1434  32.5948  32.7988  32.8456  33.3093  33.4891  34.1594  34.3346
    34.3890  34.4717  34.8336  35.1307  35.1448  35.6339  36.0013  36.0063
    36.5121  36.5355  36.8189  37.2193  37.4136  37.4375  37.5016  38.0563
    38.0699  38.4581  38.5767  38.7951  39.1337  39.1538  39.4000  39.4468
    39.6736  40.0455  40.0583  40.4979  40.7094  40.8206  41.2003  41.4515
    41.5830  41.7575  42.2462  42.4165  42.7362  42.9479  43.1603  43.4354
    43.4560  43.6866  43.7714  44.0799  44.2695  44.5807  44.9237  45.5464
    45.6740  46.0204  46.2809  46.6393  46.7091  46.7519  47.1141  47.4955
    47.5851  48.0020  48.3048  48.5971  48.7375  49.1159  49.3384  49.4354
    49.5740  49.6617  49.8994  50.1163  50.3933  50.5602  50.6636  51.0932
    51.2077  51.5218  51.5425  51.8928  52.0395  52.0558  52.4753  52.5223
    53.0260  53.1307  53.5030  53.6016  53.7550  53.8374  54.1902  54.2541
    54.5936  54.7680  54.9593  55.1550  55.4401  55.6900  55.8550  56.0239

     occupation numbers 
     1.0000   1.0000   1.0000   1.0000   1.0000   1.0000   1.0000   1.0000
     1.0000   1.0000   1.0000   1.0000   1.0000   0.0000   0.0000   0.0000
     0.0000   0.0000   0.0000   0.0000   0.0000   0.0000   0.0000   0.0000
     0.0000   0.0000   0.0000   0.0000   0.0000   0.0000   0.0000   0.0000
     0.0000   0.0000   0.0000   0.0000   0.0000   0.0000   0.0000   0.0000
     0.0000   0.0000   0.0000   0.0000   0.0000   0.0000   0.0000   0.0000
     0.0000   0.0000   0.0000   0.0000   0.0000   0.0000   0.0000   0.0000
     0.0000   0.0000   0.0000   0.0000   0.0000   0.0000   0.0000   0.0000
     0.0000   0.0000   0.0000   0.0000   0.0000   0.0000   0.0000   0.0000
     0.0000   0.0000   0.0000   0.0000   0.0000   0.0000   0.0000   0.0000
     0.0000   0.0000   0.0000   0.0000   0.0000   0.0000   0.0000   0.0000
     0.0000   0.0000   0.0000   0.0000   0.0000   0.0000   0.0000   0.0000
     0.0000   0.0000   0.0000   0.0000   0.0000   0.0000   0.0000   0.0000
     0.0000   0.0000   0.0000   0.0000   0.0000   0.0000   0.0000   0.0000
     0.0000   0.0000   0.0000   0.0000   0.0000   0.0000   0.0000   0.0000
     0.0000   0.0000   0.0000   0.0000   0.0000   0.0000   0.0000   0.0000
     0.0000   0.0000   0.0000   0.0000   0.0000   0.0000   0.0000   0.0000
     0.0000   0.0000   0.0000   0.0000   0.0000   0.0000   0.0000   0.0000
     0.0000   0.0000   0.0000   0.0000   0.0000   0.0000   0.0000   0.0000
     0.0000   0.0000   0.0000   0.0000   0.0000   0.0000   0.0000   0.0000
     0.0000   0.0000   0.0000   0.0000   0.0000   0.0000   0.0000   0.0000
     0.0000   0.0000   0.0000   0.0000   0.0000   0.0000   0.0000   0.0000
     0.0000   0.0000   0.0000   0.0000   0.0000   0.0000   0.0000   0.0000
     0.0000   0.0000   0.0000   0.0000   0.0000   0.0000   0.0000   0.0000
     0.0000   0.0000   0.0000   0.0000   0.0000   0.0000   0.0000   0.0000

          k = 0.1333 0.2309 0.0000 ( 14821 PWs)   bands (ev):

   -66.6737 -40.8579 -40.8188 -40.6897 -19.4139 -18.5027 -11.0567  -9.7363
    -9.2924  -8.8053  -7.9445  -6.8719  -6.5849  -3.8806  -3.4060  -3.3745
    -1.9626   0.7547   0.8510   2.8416   3.1873   3.3927   3.6186   4.0298
     5.4457   5.6182   6.2270   6.3991   7.1619   7.3537   7.9589   8.9794
     9.5161  10.7096  11.6732  11.7778  12.8796  12.9306  13.0459  13.1389
    14.3415  14.9004  15.0157  15.1271  15.4119  15.5616  16.4363  16.5513
    16.7731  17.5284  17.7770  18.1114  18.2771  18.5888  19.1649  19.5760
    20.2813  20.3476  20.4947  21.1722  21.2044  21.4076  21.7739  21.7994
    22.5558  22.6823  23.1305  23.2202  23.9379  23.9539  24.1885  24.3839
    24.8072  25.1950  25.2453  25.3939  25.5625  25.8538  26.4195  27.2865
    27.3990  27.4272  27.7136  27.9866  27.9980  28.4257  28.5823  28.7991
    28.8669  29.0860  29.7242  29.7939  30.1729  30.2899  30.6664  30.7601
    30.8114  30.9869  31.1804  31.5267  31.9847  32.0540  32.4776  32.8020
    32.8957  33.0993  33.3715  33.6173  33.9486  34.3658  34.5237  34.6458
    34.9791  35.3217  35.8753  36.0269  36.1487  36.7350  36.9168  37.3003
    37.6079  37.8306  38.0073  38.5040  38.5704  38.7290  38.8249  39.1462
    39.2967  39.8564  40.3043  40.3252  40.7473  40.7914  40.9515  41.6201
    41.7541  42.0751  42.3703  42.7556  42.8624  42.9921  43.2984  43.3336
    44.0777  44.2878  44.6131  44.8220  44.8341  44.9575  45.3055  45.5268
    45.8760  45.9561  46.3378  46.5721  46.6834  46.7242  47.0027  47.0407
    47.3631  47.5338  47.5987  48.0845  48.4011  48.6671  48.9842  49.0677
    49.3870  49.8120  49.9664  50.4236  50.5791  50.9013  51.1075  51.4903
    51.6959  51.8942  52.2275  52.2676  52.3305  53.0560  53.1240  53.2757
    53.3557  53.7055  53.8131  53.9922  54.2305  54.4153  54.8595  54.8696
    55.1384  55.3150  55.4166  55.6144  55.7268  56.1042  56.1781  56.1968

     occupation numbers 
     1.0000   1.0000   1.0000   1.0000   1.0000   1.0000   1.0000   1.0000
     1.0000   1.0000   1.0000   1.0000   1.0000   0.0000   0.0000   0.0000
     0.0000   0.0000   0.0000   0.0000   0.0000   0.0000   0.0000   0.0000
     0.0000   0.0000   0.0000   0.0000   0.0000   0.0000   0.0000   0.0000
     0.0000   0.0000   0.0000   0.0000   0.0000   0.0000   0.0000   0.0000
     0.0000   0.0000   0.0000   0.0000   0.0000   0.0000   0.0000   0.0000
     0.0000   0.0000   0.0000   0.0000   0.0000   0.0000   0.0000   0.0000
     0.0000   0.0000   0.0000   0.0000   0.0000   0.0000   0.0000   0.0000
     0.0000   0.0000   0.0000   0.0000   0.0000   0.0000   0.0000   0.0000
     0.0000   0.0000   0.0000   0.0000   0.0000   0.0000   0.0000   0.0000
     0.0000   0.0000   0.0000   0.0000   0.0000   0.0000   0.0000   0.0000
     0.0000   0.0000   0.0000   0.0000   0.0000   0.0000   0.0000   0.0000
     0.0000   0.0000   0.0000   0.0000   0.0000   0.0000   0.0000   0.0000
     0.0000   0.0000   0.0000   0.0000   0.0000   0.0000   0.0000   0.0000
     0.0000   0.0000   0.0000   0.0000   0.0000   0.0000   0.0000   0.0000
     0.0000   0.0000   0.0000   0.0000   0.0000   0.0000   0.0000   0.0000
     0.0000   0.0000   0.0000   0.0000   0.0000   0.0000   0.0000   0.0000
     0.0000   0.0000   0.0000   0.0000   0.0000   0.0000   0.0000   0.0000
     0.0000   0.0000   0.0000   0.0000   0.0000   0.0000   0.0000   0.0000
     0.0000   0.0000   0.0000   0.0000   0.0000   0.0000   0.0000   0.0000
     0.0000   0.0000   0.0000   0.0000   0.0000   0.0000   0.0000   0.0000
     0.0000   0.0000   0.0000   0.0000   0.0000   0.0000   0.0000   0.0000
     0.0000   0.0000   0.0000   0.0000   0.0000   0.0000   0.0000   0.0000
     0.0000   0.0000   0.0000   0.0000   0.0000   0.0000   0.0000   0.0000
     0.0000   0.0000   0.0000   0.0000   0.0000   0.0000   0.0000   0.0000

          k = 0.0667 0.1155 0.0000 ( 14897 PWs)   bands (ev):

   -66.6876 -40.8851 -40.6915 -40.6503 -19.9722 -18.7293 -11.4990  -9.0279
    -8.5188  -8.3888  -7.8106  -6.9904  -6.1196  -3.3330  -3.3160  -3.0479
    -2.7297   0.0038   0.1049   1.2897   2.4442   2.5816   3.9531   4.2628
     5.3833   5.5891   5.7749   6.2828   6.9075   6.9868   9.1662   9.3676
     9.7495  10.3868  10.7116  10.7504  12.1418  12.9754  14.3813  15.3665
    15.4790  15.6974  15.8096  16.1098  16.3452  16.6698  17.5351  17.9583
    17.9626  18.4625  18.5248  18.6677  19.6055  19.7816  19.8331  19.9051
    20.2727  20.3662  21.0357  21.3449  21.6163  21.6264  22.1670  22.3164
    22.6018  22.7916  23.1891  23.2057  23.8729  23.9111  24.3655  24.4573
    24.5212  24.6045  24.7296  24.9135  25.3767  25.4209  26.0102  26.0570
    26.3305  26.3628  26.5245  27.1572  27.4288  27.6012  27.9229  27.9819
    28.3241  28.6764  28.9142  29.2502  29.2640  29.5564  29.7956  29.8218
    30.1774  30.2690  30.6709  31.0998  31.4166  31.5871  31.6940  31.7755
    32.4449  33.0206  33.0995  33.2169  33.2323  33.5680  33.9888  33.9931
    34.4374  34.5499  35.1982  35.3152  35.4827  35.8182  36.3872  36.5709
    36.8712  37.0154  37.1504  37.5706  37.6366  38.1773  38.3588  38.6581
    38.8374  39.2072  39.3196  39.6707  40.1118  40.6095  40.9285  41.1737
    41.2397  41.8781  41.9705  42.0231  42.2648  42.4175  42.5500  43.2305
    43.5022  43.7451  43.7519  44.2683  44.4114  44.5922  44.7746  45.2264
    45.8506  45.9550  46.1788  46.2179  46.6402  46.7949  47.0437  47.1498
    47.8786  48.0342  48.5469  49.0069  49.0990  49.1391  49.8397  50.0162
    50.4940  50.7734  51.0506  51.1576  51.9168  51.9513  52.3145  52.3748
    52.4832  52.5363  52.7566  53.3211  53.6774  53.8470  54.0738  54.2196
    54.5239  54.9157  55.0311  55.2626  55.4237  55.8101  56.0133  56.0820
    56.4120  56.6465  56.7092  56.7313  57.1239  57.2047  57.3195  57.5041

     occupation numbers 
     1.0000   1.0000   1.0000   1.0000   1.0000   1.0000   1.0000   1.0000
     1.0000   1.0000   1.0000   1.0000   1.0000   0.0000   0.0000   0.0000
     0.0000   0.0000   0.0000   0.0000   0.0000   0.0000   0.0000   0.0000
     0.0000   0.0000   0.0000   0.0000   0.0000   0.0000   0.0000   0.0000
     0.0000   0.0000   0.0000   0.0000   0.0000   0.0000   0.0000   0.0000
     0.0000   0.0000   0.0000   0.0000   0.0000   0.0000   0.0000   0.0000
     0.0000   0.0000   0.0000   0.0000   0.0000   0.0000   0.0000   0.0000
     0.0000   0.0000   0.0000   0.0000   0.0000   0.0000   0.0000   0.0000
     0.0000   0.0000   0.0000   0.0000   0.0000   0.0000   0.0000   0.0000
     0.0000   0.0000   0.0000   0.0000   0.0000   0.0000   0.0000   0.0000
     0.0000   0.0000   0.0000   0.0000   0.0000   0.0000   0.0000   0.0000
     0.0000   0.0000   0.0000   0.0000   0.0000   0.0000   0.0000   0.0000
     0.0000   0.0000   0.0000   0.0000   0.0000   0.0000   0.0000   0.0000
     0.0000   0.0000   0.0000   0.0000   0.0000   0.0000   0.0000   0.0000
     0.0000   0.0000   0.0000   0.0000   0.0000   0.0000   0.0000   0.0000
     0.0000   0.0000   0.0000   0.0000   0.0000   0.0000   0.0000   0.0000
     0.0000   0.0000   0.0000   0.0000   0.0000   0.0000   0.0000   0.0000
     0.0000   0.0000   0.0000   0.0000   0.0000   0.0000   0.0000   0.0000
     0.0000   0.0000   0.0000   0.0000   0.0000   0.0000   0.0000   0.0000
     0.0000   0.0000   0.0000   0.0000   0.0000   0.0000   0.0000   0.0000
     0.0000   0.0000   0.0000   0.0000   0.0000   0.0000   0.0000   0.0000
     0.0000   0.0000   0.0000   0.0000   0.0000   0.0000   0.0000   0.0000
     0.0000   0.0000   0.0000   0.0000   0.0000   0.0000   0.0000   0.0000
     0.0000   0.0000   0.0000   0.0000   0.0000   0.0000   0.0000   0.0000
     0.0000   0.0000   0.0000   0.0000   0.0000   0.0000   0.0000   0.0000

          k = 0.0000 0.0000 0.0000 ( 14903 PWs)   bands (ev):

   -66.6931 -40.8960 -40.6372 -40.6372 -20.1785 -18.8130 -11.7262  -8.6012
    -8.6012  -7.7928  -7.4461  -7.4461  -6.0182  -3.0914  -3.0914  -2.8120
    -2.8120  -0.3417  -0.1572   0.4374   2.1827   2.3414   3.1230   4.8343
     4.8343   5.3418   5.9939   6.8631   6.8631   7.1576   9.4461  10.1009
    10.1791  10.1791  10.4918  10.4918  10.6170  12.3251  13.9506  14.1999
    15.2408  16.2506  17.2134  17.2134  18.8366  18.8366  18.8767  19.1604
    19.5361  19.5361  19.5850  19.6821  19.6940  19.6940  20.2280  20.2583
    20.5356  20.5356  21.4636  21.4636  21.6759  21.8699  21.8784  21.8784
    22.1981  22.1981  22.2237  22.6383  22.6383  22.8354  23.6854  24.1632
    24.3731  24.3731  24.3810  24.3810  24.6869  25.1108  25.4775  25.4775
    25.6151  25.6151  25.7170  26.6606  27.2638  27.2638  27.7868  27.7868
    27.8465  28.6195  28.7091  28.9404  28.9404  29.5850  29.5850  30.0393
    30.0730  30.8210  30.8210  31.0525  31.3974  31.3974  31.5241  31.5241
    31.6615  32.2398  33.1886  33.2758  33.7972  33.7972  33.8204  33.8204
    34.5503  34.6343  35.4804  35.4804  35.5205  35.5205  36.1174  36.6664
    36.6664  36.9714  37.3489  37.3573  37.3573  37.7747  38.1954  38.6011
    38.6011  38.7221  38.7221  38.8992  39.7582  39.7582  40.6116  40.7905
    40.7905  41.4910  41.4910  41.6279  41.7090  41.8049  41.8049  42.1218
    42.5890  42.6958  42.6959  44.7374  44.7430  44.8315  44.8315  45.4771
    45.6224  45.6224  46.3249  46.3249  46.6046  46.7978  47.2926  47.3157
    47.3157  48.4458  48.6842  49.0413  49.0413  50.0748  50.0748  50.7540
    50.7540  50.8717  51.5561  52.0586  52.0586  52.1718  52.4121  52.4121
    52.8559  52.8559  53.2026  53.8633  53.8633  54.1272  54.1293  54.8972
    55.2348  55.5365  55.6925  55.6925  56.7881  56.7881  57.5283  57.5611
    57.5611  57.9275  57.9275  58.6763  58.6906  58.9473  58.9497  58.9555

     occupation numbers 
     1.0000   1.0000   1.0000   1.0000   1.0000   1.0000   1.0000   1.0000
     1.0000   1.0000   1.0000   1.0000   1.0000   0.0000   0.0000   0.0000
     0.0000   0.0000   0.0000   0.0000   0.0000   0.0000   0.0000   0.0000
     0.0000   0.0000   0.0000   0.0000   0.0000   0.0000   0.0000   0.0000
     0.0000   0.0000   0.0000   0.0000   0.0000   0.0000   0.0000   0.0000
     0.0000   0.0000   0.0000   0.0000   0.0000   0.0000   0.0000   0.0000
     0.0000   0.0000   0.0000   0.0000   0.0000   0.0000   0.0000   0.0000
     0.0000   0.0000   0.0000   0.0000   0.0000   0.0000   0.0000   0.0000
     0.0000   0.0000   0.0000   0.0000   0.0000   0.0000   0.0000   0.0000
     0.0000   0.0000   0.0000   0.0000   0.0000   0.0000   0.0000   0.0000
     0.0000   0.0000   0.0000   0.0000   0.0000   0.0000   0.0000   0.0000
     0.0000   0.0000   0.0000   0.0000   0.0000   0.0000   0.0000   0.0000
     0.0000   0.0000   0.0000   0.0000   0.0000   0.0000   0.0000   0.0000
     0.0000   0.0000   0.0000   0.0000   0.0000   0.0000   0.0000   0.0000
     0.0000   0.0000   0.0000   0.0000   0.0000   0.0000   0.0000   0.0000
     0.0000   0.0000   0.0000   0.0000   0.0000   0.0000   0.0000   0.0000
     0.0000   0.0000   0.0000   0.0000   0.0000   0.0000   0.0000   0.0000
     0.0000   0.0000   0.0000   0.0000   0.0000   0.0000   0.0000   0.0000
     0.0000   0.0000   0.0000   0.0000   0.0000   0.0000   0.0000   0.0000
     0.0000   0.0000   0.0000   0.0000   0.0000   0.0000   0.0000   0.0000
     0.0000   0.0000   0.0000   0.0000   0.0000   0.0000   0.0000   0.0000
     0.0000   0.0000   0.0000   0.0000   0.0000   0.0000   0.0000   0.0000
     0.0000   0.0000   0.0000   0.0000   0.0000   0.0000   0.0000   0.0000
     0.0000   0.0000   0.0000   0.0000   0.0000   0.0000   0.0000   0.0000
     0.0000   0.0000   0.0000   0.0000   0.0000   0.0000   0.0000   0.0000

          k =-0.0667-0.1155 0.0000 ( 14897 PWs)   bands (ev):

   -66.6876 -40.8851 -40.6915 -40.6503 -19.9722 -18.7293 -11.4990  -9.0279
    -8.5188  -8.3888  -7.8106  -6.9904  -6.1196  -3.3330  -3.3160  -3.0479
    -2.7297   0.0038   0.1049   1.2897   2.4442   2.5816   3.9531   4.2628
     5.3833   5.5891   5.7749   6.2828   6.9075   6.9868   9.1662   9.3676
     9.7495  10.3868  10.7116  10.7504  12.1418  12.9754  14.3813  15.3665
    15.4790  15.6974  15.8096  16.1098  16.3452  16.6698  17.5351  17.9583
    17.9626  18.4625  18.5248  18.6677  19.6055  19.7816  19.8331  19.9051
    20.2727  20.3662  21.0357  21.3449  21.6163  21.6264  22.1670  22.3164
    22.6018  22.7916  23.1891  23.2057  23.8729  23.9111  24.3655  24.4573
    24.5212  24.6045  24.7296  24.9135  25.3767  25.4209  26.0102  26.0570
    26.3305  26.3628  26.5245  27.1572  27.4288  27.6012  27.9229  27.9819
    28.3241  28.6764  28.9142  29.2502  29.2640  29.5564  29.7956  29.8218
    30.1774  30.2690  30.6709  31.0998  31.4166  31.5871  31.6940  31.7755
    32.4449  33.0206  33.0995  33.2169  33.2323  33.5680  33.9888  33.9931
    34.4374  34.5499  35.1982  35.3152  35.4827  35.8182  36.3872  36.5709
    36.8712  37.0154  37.1504  37.5706  37.6366  38.1773  38.3588  38.6581
    38.8374  39.2072  39.3196  39.6707  40.1118  40.6095  40.9285  41.1737
    41.2397  41.8781  41.9705  42.0231  42.2648  42.4175  42.5500  43.2305
    43.5022  43.7451  43.7519  44.2683  44.4114  44.5922  44.7746  45.2264
    45.8506  45.9550  46.1788  46.2179  46.6402  46.7949  47.0437  47.1498
    47.8786  48.0342  48.5469  49.0069  49.0990  49.1391  49.8397  50.0162
    50.4940  50.7734  51.0506  51.1576  51.9168  51.9513  52.3145  52.3748
    52.4832  52.5363  52.7566  53.3211  53.6774  53.8470  54.0738  54.2196
    54.5239  54.9157  55.0311  55.2626  55.4237  55.8101  56.0133  56.0820
    56.4120  56.6465  56.7092  56.7313  57.1239  57.2047  57.3195  57.5041

     occupation numbers 
     1.0000   1.0000   1.0000   1.0000   1.0000   1.0000   1.0000   1.0000
     1.0000   1.0000   1.0000   1.0000   1.0000   0.0000   0.0000   0.0000
     0.0000   0.0000   0.0000   0.0000   0.0000   0.0000   0.0000   0.0000
     0.0000   0.0000   0.0000   0.0000   0.0000   0.0000   0.0000   0.0000
     0.0000   0.0000   0.0000   0.0000   0.0000   0.0000   0.0000   0.0000
     0.0000   0.0000   0.0000   0.0000   0.0000   0.0000   0.0000   0.0000
     0.0000   0.0000   0.0000   0.0000   0.0000   0.0000   0.0000   0.0000
     0.0000   0.0000   0.0000   0.0000   0.0000   0.0000   0.0000   0.0000
     0.0000   0.0000   0.0000   0.0000   0.0000   0.0000   0.0000   0.0000
     0.0000   0.0000   0.0000   0.0000   0.0000   0.0000   0.0000   0.0000
     0.0000   0.0000   0.0000   0.0000   0.0000   0.0000   0.0000   0.0000
     0.0000   0.0000   0.0000   0.0000   0.0000   0.0000   0.0000   0.0000
     0.0000   0.0000   0.0000   0.0000   0.0000   0.0000   0.0000   0.0000
     0.0000   0.0000   0.0000   0.0000   0.0000   0.0000   0.0000   0.0000
     0.0000   0.0000   0.0000   0.0000   0.0000   0.0000   0.0000   0.0000
     0.0000   0.0000   0.0000   0.0000   0.0000   0.0000   0.0000   0.0000
     0.0000   0.0000   0.0000   0.0000   0.0000   0.0000   0.0000   0.0000
     0.0000   0.0000   0.0000   0.0000   0.0000   0.0000   0.0000   0.0000
     0.0000   0.0000   0.0000   0.0000   0.0000   0.0000   0.0000   0.0000
     0.0000   0.0000   0.0000   0.0000   0.0000   0.0000   0.0000   0.0000
     0.0000   0.0000   0.0000   0.0000   0.0000   0.0000   0.0000   0.0000
     0.0000   0.0000   0.0000   0.0000   0.0000   0.0000   0.0000   0.0000
     0.0000   0.0000   0.0000   0.0000   0.0000   0.0000   0.0000   0.0000
     0.0000   0.0000   0.0000   0.0000   0.0000   0.0000   0.0000   0.0000
     0.0000   0.0000   0.0000   0.0000   0.0000   0.0000   0.0000   0.0000

          k =-0.1333-0.2309 0.0000 ( 14821 PWs)   bands (ev):

   -66.6737 -40.8579 -40.8188 -40.6897 -19.4139 -18.5027 -11.0567  -9.7363
    -9.2924  -8.8053  -7.9445  -6.8719  -6.5849  -3.8806  -3.4060  -3.3745
    -1.9626   0.7547   0.8510   2.8416   3.1873   3.3927   3.6186   4.0298
     5.4457   5.6182   6.2270   6.3991   7.1619   7.3537   7.9589   8.9794
     9.5161  10.7096  11.6732  11.7778  12.8796  12.9306  13.0459  13.1389
    14.3415  14.9004  15.0157  15.1271  15.4119  15.5616  16.4363  16.5513
    16.7731  17.5284  17.7770  18.1114  18.2771  18.5888  19.1649  19.5760
    20.2813  20.3476  20.4947  21.1722  21.2044  21.4076  21.7739  21.7994
    22.5558  22.6823  23.1305  23.2202  23.9379  23.9539  24.1885  24.3839
    24.8072  25.1950  25.2453  25.3939  25.5625  25.8538  26.4195  27.2865
    27.3990  27.4272  27.7136  27.9866  27.9980  28.4257  28.5823  28.7991
    28.8669  29.0860  29.7242  29.7939  30.1729  30.2899  30.6664  30.7601
    30.8114  30.9869  31.1804  31.5267  31.9847  32.0540  32.4776  32.8020
    32.8957  33.0993  33.3715  33.6173  33.9486  34.3658  34.5237  34.6458
    34.9791  35.3217  35.8753  36.0269  36.1487  36.7350  36.9168  37.3003
    37.6079  37.8306  38.0073  38.5040  38.5704  38.7290  38.8249  39.1462
    39.2967  39.8564  40.3043  40.3252  40.7473  40.7914  40.9515  41.6201
    41.7541  42.0751  42.3703  42.7556  42.8624  42.9921  43.2984  43.3336
    44.0777  44.2878  44.6131  44.8220  44.8341  44.9575  45.3055  45.5268
    45.8760  45.9561  46.3378  46.5721  46.6834  46.7242  47.0027  47.0407
    47.3631  47.5338  47.5987  48.0845  48.4011  48.6671  48.9842  49.0677
    49.3870  49.8120  49.9664  50.4236  50.5791  50.9013  51.1075  51.4903
    51.6959  51.8942  52.2275  52.2676  52.3305  53.0560  53.1240  53.2757
    53.3557  53.7055  53.8131  53.9922  54.2305  54.4153  54.8595  54.8696
    55.1384  55.3150  55.4166  55.6144  55.7268  56.1042  56.1781  56.1968

     occupation numbers 
     1.0000   1.0000   1.0000   1.0000   1.0000   1.0000   1.0000   1.0000
     1.0000   1.0000   1.0000   1.0000   1.0000   0.0000   0.0000   0.0000
     0.0000   0.0000   0.0000   0.0000   0.0000   0.0000   0.0000   0.0000
     0.0000   0.0000   0.0000   0.0000   0.0000   0.0000   0.0000   0.0000
     0.0000   0.0000   0.0000   0.0000   0.0000   0.0000   0.0000   0.0000
     0.0000   0.0000   0.0000   0.0000   0.0000   0.0000   0.0000   0.0000
     0.0000   0.0000   0.0000   0.0000   0.0000   0.0000   0.0000   0.0000
     0.0000   0.0000   0.0000   0.0000   0.0000   0.0000   0.0000   0.0000
     0.0000   0.0000   0.0000   0.0000   0.0000   0.0000   0.0000   0.0000
     0.0000   0.0000   0.0000   0.0000   0.0000   0.0000   0.0000   0.0000
     0.0000   0.0000   0.0000   0.0000   0.0000   0.0000   0.0000   0.0000
     0.0000   0.0000   0.0000   0.0000   0.0000   0.0000   0.0000   0.0000
     0.0000   0.0000   0.0000   0.0000   0.0000   0.0000   0.0000   0.0000
     0.0000   0.0000   0.0000   0.0000   0.0000   0.0000   0.0000   0.0000
     0.0000   0.0000   0.0000   0.0000   0.0000   0.0000   0.0000   0.0000
     0.0000   0.0000   0.0000   0.0000   0.0000   0.0000   0.0000   0.0000
     0.0000   0.0000   0.0000   0.0000   0.0000   0.0000   0.0000   0.0000
     0.0000   0.0000   0.0000   0.0000   0.0000   0.0000   0.0000   0.0000
     0.0000   0.0000   0.0000   0.0000   0.0000   0.0000   0.0000   0.0000
     0.0000   0.0000   0.0000   0.0000   0.0000   0.0000   0.0000   0.0000
     0.0000   0.0000   0.0000   0.0000   0.0000   0.0000   0.0000   0.0000
     0.0000   0.0000   0.0000   0.0000   0.0000   0.0000   0.0000   0.0000
     0.0000   0.0000   0.0000   0.0000   0.0000   0.0000   0.0000   0.0000
     0.0000   0.0000   0.0000   0.0000   0.0000   0.0000   0.0000   0.0000
     0.0000   0.0000   0.0000   0.0000   0.0000   0.0000   0.0000   0.0000

          k =-0.2000-0.3464 0.0000 ( 14811 PWs)   bands (ev):

   -66.6579 -40.9395 -40.8269 -40.7544 -18.6853 -18.2047 -11.1446 -10.2834
    -9.7063  -9.3661  -8.2471  -7.1763  -6.7479  -3.9184  -3.2897  -3.0216
    -1.4118   1.7518   1.9384   2.5891   3.4191   3.7831   4.2992   4.5994
     5.2776   5.9562   5.9973   6.5761   6.7328   8.4249   8.5315   9.2678
     9.8586  10.5545  10.5895  10.8910  11.0420  11.9212  12.6289  12.9163
    13.0651  13.2597  13.4193  13.8590  15.1210  15.8558  16.0658  16.2965
    16.4312  16.9125  17.0130  18.1285  18.2066  18.8963  19.0597  19.1189
    19.3619  19.9076  20.1965  20.9793  21.6082  21.7053  21.9479  22.2360
    22.5416  22.5564  22.5844  23.2104  23.3692  23.4150  24.1390  24.5976
    24.9580  25.1069  25.2977  25.6154  25.6552  25.9458  25.9466  26.7172
    26.8110  27.2148  27.5296  28.0287  28.2132  28.4374  28.9446  29.0116
    29.1547  29.8873  30.0054  30.2857  30.8267  31.0535  31.4000  32.0320
    32.1434  32.5948  32.7988  32.8456  33.3093  33.4891  34.1594  34.3346
    34.3890  34.4717  34.8336  35.1307  35.1448  35.6339  36.0013  36.0063
    36.5121  36.5355  36.8189  37.2193  37.4136  37.4375  37.5016  38.0563
    38.0699  38.4581  38.5767  38.7951  39.1337  39.1538  39.4000  39.4468
    39.6736  40.0455  40.0583  40.4979  40.7094  40.8206  41.2003  41.4515
    41.5830  41.7575  42.2462  42.4165  42.7362  42.9479  43.1603  43.4354
    43.4560  43.6866  43.7714  44.0799  44.2695  44.5807  44.9237  45.5464
    45.6740  46.0204  46.2809  46.6393  46.7091  46.7519  47.1141  47.4955
    47.5851  48.0020  48.3048  48.5971  48.7375  49.1159  49.3384  49.4354
    49.5740  49.6617  49.8994  50.1163  50.3933  50.5602  50.6636  51.0932
    51.2077  51.5218  51.5425  51.8928  52.0395  52.0558  52.4753  52.5223
    53.0260  53.1307  53.5030  53.6016  53.7550  53.8374  54.1902  54.2541
    54.5936  54.7680  54.9593  55.1550  55.4401  55.6900  55.8550  56.0239

     occupation numbers 
     1.0000   1.0000   1.0000   1.0000   1.0000   1.0000   1.0000   1.0000
     1.0000   1.0000   1.0000   1.0000   1.0000   0.0000   0.0000   0.0000
     0.0000   0.0000   0.0000   0.0000   0.0000   0.0000   0.0000   0.0000
     0.0000   0.0000   0.0000   0.0000   0.0000   0.0000   0.0000   0.0000
     0.0000   0.0000   0.0000   0.0000   0.0000   0.0000   0.0000   0.0000
     0.0000   0.0000   0.0000   0.0000   0.0000   0.0000   0.0000   0.0000
     0.0000   0.0000   0.0000   0.0000   0.0000   0.0000   0.0000   0.0000
     0.0000   0.0000   0.0000   0.0000   0.0000   0.0000   0.0000   0.0000
     0.0000   0.0000   0.0000   0.0000   0.0000   0.0000   0.0000   0.0000
     0.0000   0.0000   0.0000   0.0000   0.0000   0.0000   0.0000   0.0000
     0.0000   0.0000   0.0000   0.0000   0.0000   0.0000   0.0000   0.0000
     0.0000   0.0000   0.0000   0.0000   0.0000   0.0000   0.0000   0.0000
     0.0000   0.0000   0.0000   0.0000   0.0000   0.0000   0.0000   0.0000
     0.0000   0.0000   0.0000   0.0000   0.0000   0.0000   0.0000   0.0000
     0.0000   0.0000   0.0000   0.0000   0.0000   0.0000   0.0000   0.0000
     0.0000   0.0000   0.0000   0.0000   0.0000   0.0000   0.0000   0.0000
     0.0000   0.0000   0.0000   0.0000   0.0000   0.0000   0.0000   0.0000
     0.0000   0.0000   0.0000   0.0000   0.0000   0.0000   0.0000   0.0000
     0.0000   0.0000   0.0000   0.0000   0.0000   0.0000   0.0000   0.0000
     0.0000   0.0000   0.0000   0.0000   0.0000   0.0000   0.0000   0.0000
     0.0000   0.0000   0.0000   0.0000   0.0000   0.0000   0.0000   0.0000
     0.0000   0.0000   0.0000   0.0000   0.0000   0.0000   0.0000   0.0000
     0.0000   0.0000   0.0000   0.0000   0.0000   0.0000   0.0000   0.0000
     0.0000   0.0000   0.0000   0.0000   0.0000   0.0000   0.0000   0.0000
     0.0000   0.0000   0.0000   0.0000   0.0000   0.0000   0.0000   0.0000

          k =-0.2667-0.4619 0.0000 ( 14760 PWs)   bands (ev):

   -66.6469 -40.9855 -40.8376 -40.8052 -18.0880 -17.9486 -11.2137 -11.1682
    -9.6190  -9.1928  -9.1803  -7.7458  -6.3592  -3.7837  -2.8167  -2.8024
    -1.1124   1.4373   2.3136   3.0465   3.7406   4.2621   5.3855   5.4010
     5.7846   6.2375   6.7201   6.9315   7.3579   7.7630   8.2631   8.5461
     8.5532   9.2261   9.7973  10.2644  10.6997  11.2175  11.2796  11.8018
    12.6451  12.7062  13.7359  14.2092  14.7395  15.2439  15.2544  15.7627
    15.8898  16.6862  16.9265  17.9877  18.3578  18.8324  18.9508  19.1937
    19.7044  19.8551  20.1092  20.7092  21.4724  21.4967  22.3514  22.6749
    22.8268  22.8452  23.2966  23.9865  24.0561  24.1988  24.4006  24.8278
    24.9744  25.0936  25.1778  25.5915  25.9322  26.1598  26.6337  26.7877
    26.9412  27.2554  27.8101  27.8172  28.0286  28.9158  29.3655  29.4043
    29.7033  30.0215  30.1836  30.2984  30.9610  31.1298  31.2486  31.8994
    32.1833  32.4838  32.8221  32.9784  32.9933  33.4880  33.5613  34.0683
    34.4084  34.4542  34.8433  35.1511  35.5178  35.5581  35.7656  35.7808
    36.1581  36.7984  36.9931  37.7362  37.8210  38.0112  38.4611  39.0834
    39.2777  39.4149  39.4330  39.7602  39.8824  39.9095  40.0661  40.3104
    40.3222  40.6054  40.7499  41.2289  41.3706  41.6166  41.7206  42.0137
    42.0453  42.3970  42.4756  43.0025  43.0734  43.3865  43.4272  43.7442
    44.0034  44.4150  44.5697  44.8674  45.2735  45.3858  45.4611  45.7370
    46.0076  46.2403  46.8471  47.1509  47.3527  47.4259  47.5492  47.9451
    48.3579  48.4138  48.6087  48.7049  48.9444  49.0641  49.0693  49.4723
    49.4752  49.6471  49.8077  49.9035  50.3333  50.3891  50.6257  50.7368
    51.1348  51.4816  51.5654  51.5941  51.6985  51.9319  52.2274  52.4718
    52.4843  52.7311  53.0186  53.1343  53.4037  53.4286  53.6647  53.6957
    53.7721  54.0102  54.2836  54.4371  54.5799  54.6155  54.9506  55.0492

     occupation numbers 
     1.0000   1.0000   1.0000   1.0000   1.0000   1.0000   1.0000   1.0000
     1.0000   1.0000   1.0000   1.0000   1.0000   0.0000   0.0000   0.0000
     0.0000   0.0000   0.0000   0.0000   0.0000   0.0000   0.0000   0.0000
     0.0000   0.0000   0.0000   0.0000   0.0000   0.0000   0.0000   0.0000
     0.0000   0.0000   0.0000   0.0000   0.0000   0.0000   0.0000   0.0000
     0.0000   0.0000   0.0000   0.0000   0.0000   0.0000   0.0000   0.0000
     0.0000   0.0000   0.0000   0.0000   0.0000   0.0000   0.0000   0.0000
     0.0000   0.0000   0.0000   0.0000   0.0000   0.0000   0.0000   0.0000
     0.0000   0.0000   0.0000   0.0000   0.0000   0.0000   0.0000   0.0000
     0.0000   0.0000   0.0000   0.0000   0.0000   0.0000   0.0000   0.0000
     0.0000   0.0000   0.0000   0.0000   0.0000   0.0000   0.0000   0.0000
     0.0000   0.0000   0.0000   0.0000   0.0000   0.0000   0.0000   0.0000
     0.0000   0.0000   0.0000   0.0000   0.0000   0.0000   0.0000   0.0000
     0.0000   0.0000   0.0000   0.0000   0.0000   0.0000   0.0000   0.0000
     0.0000   0.0000   0.0000   0.0000   0.0000   0.0000   0.0000   0.0000
     0.0000   0.0000   0.0000   0.0000   0.0000   0.0000   0.0000   0.0000
     0.0000   0.0000   0.0000   0.0000   0.0000   0.0000   0.0000   0.0000
     0.0000   0.0000   0.0000   0.0000   0.0000   0.0000   0.0000   0.0000
     0.0000   0.0000   0.0000   0.0000   0.0000   0.0000   0.0000   0.0000
     0.0000   0.0000   0.0000   0.0000   0.0000   0.0000   0.0000   0.0000
     0.0000   0.0000   0.0000   0.0000   0.0000   0.0000   0.0000   0.0000
     0.0000   0.0000   0.0000   0.0000   0.0000   0.0000   0.0000   0.0000
     0.0000   0.0000   0.0000   0.0000   0.0000   0.0000   0.0000   0.0000
     0.0000   0.0000   0.0000   0.0000   0.0000   0.0000   0.0000   0.0000
     0.0000   0.0000   0.0000   0.0000   0.0000   0.0000   0.0000   0.0000

          k =-0.3333-0.5774 0.0000 ( 14772 PWs)   bands (ev):

   -66.6434 -40.9567 -40.9074 -40.7984 -17.8857 -17.8520 -11.5453 -10.6799
   -10.1581  -9.5376  -8.9048  -8.1349  -5.9734  -4.1909  -2.9039  -2.2691
    -0.8689   1.3160   1.6215   3.6417   4.6096   5.3663   5.6963   5.9391
     6.0191   6.3757   6.9432   7.1904   7.4505   7.4614   7.4759   7.8193
     8.3876   9.1619   9.4288   9.6458   9.8567  10.5270  10.9047  11.6750
    12.5726  12.8038  13.4420  13.4422  13.7571  14.1577  14.5758  15.9784
    17.4329  17.6613  17.8418  17.9703  18.1013  18.9982  19.0134  19.5308
    19.6200  20.0567  20.9255  21.1620  21.3015  21.3993  21.9833  22.0405
    22.3871  22.6146  23.6354  23.6518  23.7729  23.8062  23.9134  25.1979
    25.3853  25.9135  26.4137  26.6091  26.6413  26.8869  27.1674  27.2398
    27.3657  27.7236  27.7847  27.9081  28.6629  28.9876  29.0477  29.0883
    29.3847  29.5750  30.2700  30.3998  30.4800  30.8242  31.0158  31.5892
    31.8833  32.1669  32.4979  32.5251  32.5311  33.0532  33.0877  33.1004
    33.5053  33.5719  34.5222  34.7932  35.0899  35.7550  35.7574  35.9536
    36.6706  36.6862  36.7535  36.8350  37.6662  37.9262  38.3451  38.5192
    38.6399  38.7170  38.9957  39.2328  39.3406  39.4270  39.5225  40.7550
    41.3544  41.7859  41.9973  42.2851  42.5224  42.5934  43.0381  43.0593
    43.4722  43.6958  43.7633  44.1788  44.7779  45.0412  45.3813  45.5617
    45.6060  45.6933  45.7690  45.9204  45.9217  46.0538  46.2978  46.7626
    46.8218  46.9705  46.9779  46.9829  47.1306  47.6192  47.6282  47.8091
    48.0603  48.1493  48.2619  48.3407  48.5174  48.5204  48.7118  48.8259
    49.0350  49.0823  49.5225  49.5963  49.8903  49.9788  50.0936  50.3316
    50.5532  50.6107  50.8475  51.1489  51.2016  51.2983  51.5063  51.7282
    51.7620  52.0205  52.0687  52.5255  52.5402  52.5589  52.9506  52.9923
    53.0299  53.2452  53.3801  53.9232  54.0860  54.3679  54.5279  54.6276

     occupation numbers 
     1.0000   1.0000   1.0000   1.0000   1.0000   1.0000   1.0000   1.0000
     1.0000   1.0000   1.0000   1.0000   1.0000   0.0000   0.0000   0.0000
     0.0000   0.0000   0.0000   0.0000   0.0000   0.0000   0.0000   0.0000
     0.0000   0.0000   0.0000   0.0000   0.0000   0.0000   0.0000   0.0000
     0.0000   0.0000   0.0000   0.0000   0.0000   0.0000   0.0000   0.0000
     0.0000   0.0000   0.0000   0.0000   0.0000   0.0000   0.0000   0.0000
     0.0000   0.0000   0.0000   0.0000   0.0000   0.0000   0.0000   0.0000
     0.0000   0.0000   0.0000   0.0000   0.0000   0.0000   0.0000   0.0000
     0.0000   0.0000   0.0000   0.0000   0.0000   0.0000   0.0000   0.0000
     0.0000   0.0000   0.0000   0.0000   0.0000   0.0000   0.0000   0.0000
     0.0000   0.0000   0.0000   0.0000   0.0000   0.0000   0.0000   0.0000
     0.0000   0.0000   0.0000   0.0000   0.0000   0.0000   0.0000   0.0000
     0.0000   0.0000   0.0000   0.0000   0.0000   0.0000   0.0000   0.0000
     0.0000   0.0000   0.0000   0.0000   0.0000   0.0000   0.0000   0.0000
     0.0000   0.0000   0.0000   0.0000   0.0000   0.0000   0.0000   0.0000
     0.0000   0.0000   0.0000   0.0000   0.0000   0.0000   0.0000   0.0000
     0.0000   0.0000   0.0000   0.0000   0.0000   0.0000   0.0000   0.0000
     0.0000   0.0000   0.0000   0.0000   0.0000   0.0000   0.0000   0.0000
     0.0000   0.0000   0.0000   0.0000   0.0000   0.0000   0.0000   0.0000
     0.0000   0.0000   0.0000   0.0000   0.0000   0.0000   0.0000   0.0000
     0.0000   0.0000   0.0000   0.0000   0.0000   0.0000   0.0000   0.0000
     0.0000   0.0000   0.0000   0.0000   0.0000   0.0000   0.0000   0.0000
     0.0000   0.0000   0.0000   0.0000   0.0000   0.0000   0.0000   0.0000
     0.0000   0.0000   0.0000   0.0000   0.0000   0.0000   0.0000   0.0000
     0.0000   0.0000   0.0000   0.0000   0.0000   0.0000   0.0000   0.0000

          k =-0.2500-0.4907 0.0074 ( 14770 PWs)   bands (ev):

   -66.6461 -40.9878 -40.8448 -40.8036 -18.0404 -17.9278 -11.2844 -11.1505
    -9.7114  -9.1825  -9.1483  -7.8206  -6.2907  -3.8345  -2.8007  -2.7037
    -1.0913   1.2850   2.3124   3.1632   3.8582   4.4025   5.4021   5.4890
     5.8171   6.1928   6.7325   6.9371   7.5433   7.8417   8.1255   8.2693
     8.6029   9.1661   9.8343  10.0175  10.7215  10.9929  11.2909  11.8598
    12.6545  12.6778  13.6280  14.0327  14.3675  15.0958  15.3471  15.8804
    16.0492  16.7203  17.1076  18.0116  18.2945  18.6674  19.2250  19.3439
    19.5804  19.6441  20.2913  20.8320  21.5031  21.5702  22.1193  22.4900
    22.8472  22.9337  23.1586  23.7778  23.9165  24.1110  24.2260  24.9704
    25.1201  25.2787  25.5298  25.6190  26.0291  26.3152  26.4426  26.4847
    27.3316  27.5138  27.7016  28.1649  28.5262  28.7906  29.2035  29.4077
    29.8749  30.0029  30.1872  30.3400  31.0664  31.0965  31.5938  31.7459
    31.8797  32.4513  32.6584  32.8725  33.1085  33.2219  33.3907  33.9760
    34.1803  34.4548  34.6434  34.7965  35.3843  35.6709  35.8002  35.9082
    36.2362  36.7859  36.8629  37.3762  37.5446  38.2339  38.3383  38.8896
    39.2190  39.3953  39.5197  39.6203  39.6486  40.0214  40.1970  40.4690
    40.6868  40.9920  41.2068  41.3852  41.6616  41.8581  41.8956  42.0526
    42.3673  42.8013  42.9145  43.0019  43.0375  43.6768  43.7258  43.9113
    44.0594  44.5175  44.7848  45.0302  45.3497  45.6014  45.7159  45.9338
    46.2587  46.3800  46.8574  46.9424  47.0962  47.3460  47.4199  47.6162
    47.9407  48.1468  48.4174  48.6912  48.9212  49.0703  49.3093  49.4849
    49.5872  49.6973  49.8266  49.9307  50.2138  50.3393  50.6401  50.7781
    50.9078  51.1552  51.3993  51.6273  51.7131  51.8682  52.2035  52.2462
    52.4720  52.5466  52.7875  52.8696  53.0125  53.2821  53.5959  53.6967
    53.8312  54.0951  54.2162  54.3109  54.4734  54.5055  54.8598  54.9364

     occupation numbers 
     1.0000   1.0000   1.0000   1.0000   1.0000   1.0000   1.0000   1.0000
     1.0000   1.0000   1.0000   1.0000   1.0000   0.0000   0.0000   0.0000
     0.0000   0.0000   0.0000   0.0000   0.0000   0.0000   0.0000   0.0000
     0.0000   0.0000   0.0000   0.0000   0.0000   0.0000   0.0000   0.0000
     0.0000   0.0000   0.0000   0.0000   0.0000   0.0000   0.0000   0.0000
     0.0000   0.0000   0.0000   0.0000   0.0000   0.0000   0.0000   0.0000
     0.0000   0.0000   0.0000   0.0000   0.0000   0.0000   0.0000   0.0000
     0.0000   0.0000   0.0000   0.0000   0.0000   0.0000   0.0000   0.0000
     0.0000   0.0000   0.0000   0.0000   0.0000   0.0000   0.0000   0.0000
     0.0000   0.0000   0.0000   0.0000   0.0000   0.0000   0.0000   0.0000
     0.0000   0.0000   0.0000   0.0000   0.0000   0.0000   0.0000   0.0000
     0.0000   0.0000   0.0000   0.0000   0.0000   0.0000   0.0000   0.0000
     0.0000   0.0000   0.0000   0.0000   0.0000   0.0000   0.0000   0.0000
     0.0000   0.0000   0.0000   0.0000   0.0000   0.0000   0.0000   0.0000
     0.0000   0.0000   0.0000   0.0000   0.0000   0.0000   0.0000   0.0000
     0.0000   0.0000   0.0000   0.0000   0.0000   0.0000   0.0000   0.0000
     0.0000   0.0000   0.0000   0.0000   0.0000   0.0000   0.0000   0.0000
     0.0000   0.0000   0.0000   0.0000   0.0000   0.0000   0.0000   0.0000
     0.0000   0.0000   0.0000   0.0000   0.0000   0.0000   0.0000   0.0000
     0.0000   0.0000   0.0000   0.0000   0.0000   0.0000   0.0000   0.0000
     0.0000   0.0000   0.0000   0.0000   0.0000   0.0000   0.0000   0.0000
     0.0000   0.0000   0.0000   0.0000   0.0000   0.0000   0.0000   0.0000
     0.0000   0.0000   0.0000   0.0000   0.0000   0.0000   0.0000   0.0000
     0.0000   0.0000   0.0000   0.0000   0.0000   0.0000   0.0000   0.0000
     0.0000   0.0000   0.0000   0.0000   0.0000   0.0000   0.0000   0.0000

          k =-0.1667-0.4041 0.0149 ( 14794 PWs)   bands (ev):

   -66.6543 -40.9694 -40.8198 -40.7667 -18.4962 -18.1286 -11.2674 -10.5777
    -9.7182  -9.3233  -8.2889  -7.3728  -6.6758  -3.7846  -3.2458  -2.8218
    -1.3852   1.7738   2.2200   2.3457   3.3673   3.8190   4.5452   4.6052
     5.1547   5.9811   6.5631   6.8789   6.9252   8.3309   8.8388   8.9444
     9.5508   9.7171  10.4340  11.1451  11.1949  11.6645  11.9022  12.4781
    13.0829  13.5291  13.6853  14.2482  14.8024  15.1742  15.6002  16.1195
    16.3983  17.1360  17.4352  17.8663  17.9967  18.4839  19.0104  19.2298
    19.6671  19.8170  20.5496  20.5966  21.0030  21.2256  21.6599  21.9580
    22.5264  22.6348  22.8485  23.0141  23.6992  24.0354  24.1574  24.3911
    24.6886  25.0472  25.1895  25.5655  25.9994  26.3846  26.5873  26.9036
    27.0185  27.3193  27.4121  27.7365  28.2292  28.5574  29.0422  29.0876
    29.1961  29.8876  30.5038  30.6322  30.8003  31.1665  31.3730  31.8021
    32.2681  32.3878  32.8216  33.2521  33.3993  33.6101  33.9548  34.6105
    34.8919  35.1155  35.3172  35.4917  35.8141  36.0909  36.1740  36.2861
    36.7171  36.9223  37.0398  37.2033  37.2798  37.4898  37.5883  37.7900
    38.3226  38.4975  38.6041  38.8532  38.9872  39.1523  39.5281  39.8278
    40.0006  40.1857  40.3667  40.5314  40.7156  40.8643  41.0989  41.4752
    41.7416  41.9166  42.3183  42.4716  42.6873  42.9247  43.1167  43.3238
    43.7412  43.9324  44.0762  44.4455  44.7324  44.8612  45.0888  45.3778
    45.6155  46.0176  46.1762  46.4034  46.7363  46.9095  47.2494  47.3393
    47.4657  47.7568  47.9207  48.2598  48.5656  48.7010  49.0429  49.1603
    49.5478  49.6731  49.8313  50.0502  50.3886  50.4428  50.8634  50.9202
    51.1611  51.4280  51.6537  51.8769  51.9830  52.2182  52.5465  52.8601
    53.0789  53.2933  53.3755  53.5823  53.7253  53.7851  54.0628  54.2929
    54.4734  54.7157  54.7900  55.0114  55.2995  55.5518  55.7036  55.9035

     occupation numbers 
     1.0000   1.0000   1.0000   1.0000   1.0000   1.0000   1.0000   1.0000
     1.0000   1.0000   1.0000   1.0000   1.0000   0.0000   0.0000   0.0000
     0.0000   0.0000   0.0000   0.0000   0.0000   0.0000   0.0000   0.0000
     0.0000   0.0000   0.0000   0.0000   0.0000   0.0000   0.0000   0.0000
     0.0000   0.0000   0.0000   0.0000   0.0000   0.0000   0.0000   0.0000
     0.0000   0.0000   0.0000   0.0000   0.0000   0.0000   0.0000   0.0000
     0.0000   0.0000   0.0000   0.0000   0.0000   0.0000   0.0000   0.0000
     0.0000   0.0000   0.0000   0.0000   0.0000   0.0000   0.0000   0.0000
     0.0000   0.0000   0.0000   0.0000   0.0000   0.0000   0.0000   0.0000
     0.0000   0.0000   0.0000   0.0000   0.0000   0.0000   0.0000   0.0000
     0.0000   0.0000   0.0000   0.0000   0.0000   0.0000   0.0000   0.0000
     0.0000   0.0000   0.0000   0.0000   0.0000   0.0000   0.0000   0.0000
     0.0000   0.0000   0.0000   0.0000   0.0000   0.0000   0.0000   0.0000
     0.0000   0.0000   0.0000   0.0000   0.0000   0.0000   0.0000   0.0000
     0.0000   0.0000   0.0000   0.0000   0.0000   0.0000   0.0000   0.0000
     0.0000   0.0000   0.0000   0.0000   0.0000   0.0000   0.0000   0.0000
     0.0000   0.0000   0.0000   0.0000   0.0000   0.0000   0.0000   0.0000
     0.0000   0.0000   0.0000   0.0000   0.0000   0.0000   0.0000   0.0000
     0.0000   0.0000   0.0000   0.0000   0.0000   0.0000   0.0000   0.0000
     0.0000   0.0000   0.0000   0.0000   0.0000   0.0000   0.0000   0.0000
     0.0000   0.0000   0.0000   0.0000   0.0000   0.0000   0.0000   0.0000
     0.0000   0.0000   0.0000   0.0000   0.0000   0.0000   0.0000   0.0000
     0.0000   0.0000   0.0000   0.0000   0.0000   0.0000   0.0000   0.0000
     0.0000   0.0000   0.0000   0.0000   0.0000   0.0000   0.0000   0.0000
     0.0000   0.0000   0.0000   0.0000   0.0000   0.0000   0.0000   0.0000

          k =-0.0833-0.3175 0.0223 ( 14827 PWs)   bands (ev):

   -66.6663 -40.8897 -40.8433 -40.7060 -19.0858 -18.3714 -11.0843  -9.8580
    -9.8246  -8.9102  -7.7348  -7.1815  -6.8127  -3.8911  -3.4521  -3.0087
    -1.7576   1.1563   1.2969   2.6820   2.9990   3.3004   3.9264   4.1539
     5.8218   6.0416   6.2473   6.7837   6.8064   7.8589   8.5029   9.0806
     9.4565  10.5599  10.7758  11.3796  12.1818  12.2385  13.0506  13.1315
    13.4309  13.6502  15.0217  15.3309  15.3533  16.0344  16.3638  16.4013
    16.6055  17.2952  17.5245  17.9500  18.1635  18.4701  18.9271  19.1842
    19.4322  19.8232  20.2120  20.6263  20.9905  21.1829  21.5551  22.0112
    22.3192  22.4716  22.9587  23.2318  23.6667  23.7791  24.5369  24.6414
    24.9566  25.1165  25.4486  25.5559  25.9619  26.1347  26.3252  26.6045
    26.8471  27.4299  27.5197  27.7646  27.8771  28.8004  29.2134  29.4193
    29.5185  29.8414  30.0193  30.1689  30.5072  30.6111  30.9698  31.1765
    31.5441  31.7095  31.9897  32.2310  32.4733  32.6039  33.1374  33.3608
    33.5423  33.8178  33.9766  34.2713  34.6763  34.8941  35.0586  35.2958
    35.6946  35.9831  36.1326  36.4561  36.5502  36.8304  37.1563  37.5589
    37.8098  37.9875  38.2223  38.4948  38.6797  39.2326  39.3672  39.5760
    39.8160  40.1732  40.2985  40.5719  40.9767  41.1521  41.3567  41.8422
    42.0633  42.2108  42.4882  42.6306  42.7544  43.0595  43.2249  43.4175
    43.7877  44.1337  44.3286  44.6050  44.7519  44.8419  45.1855  45.3634
    45.7039  45.8886  46.1553  46.3212  46.5044  46.5376  46.7435  47.0910
    47.3132  47.6202  47.9351  48.2671  48.3717  48.4890  48.6651  48.9921
    49.2801  49.4421  49.7703  49.9414  50.2212  50.3130  50.5322  50.6604
    50.8872  51.0290  51.4159  51.6202  51.8480  52.2128  52.6161  52.7506
    52.9542  53.0799  53.6507  53.8126  53.9393  54.1022  54.4756  54.6700
    54.8918  55.0568  55.3969  55.5356  55.7343  56.0094  56.5442  56.6419

     occupation numbers 
     1.0000   1.0000   1.0000   1.0000   1.0000   1.0000   1.0000   1.0000
     1.0000   1.0000   1.0000   1.0000   1.0000   0.0000   0.0000   0.0000
     0.0000   0.0000   0.0000   0.0000   0.0000   0.0000   0.0000   0.0000
     0.0000   0.0000   0.0000   0.0000   0.0000   0.0000   0.0000   0.0000
     0.0000   0.0000   0.0000   0.0000   0.0000   0.0000   0.0000   0.0000
     0.0000   0.0000   0.0000   0.0000   0.0000   0.0000   0.0000   0.0000
     0.0000   0.0000   0.0000   0.0000   0.0000   0.0000   0.0000   0.0000
     0.0000   0.0000   0.0000   0.0000   0.0000   0.0000   0.0000   0.0000
     0.0000   0.0000   0.0000   0.0000   0.0000   0.0000   0.0000   0.0000
     0.0000   0.0000   0.0000   0.0000   0.0000   0.0000   0.0000   0.0000
     0.0000   0.0000   0.0000   0.0000   0.0000   0.0000   0.0000   0.0000
     0.0000   0.0000   0.0000   0.0000   0.0000   0.0000   0.0000   0.0000
     0.0000   0.0000   0.0000   0.0000   0.0000   0.0000   0.0000   0.0000
     0.0000   0.0000   0.0000   0.0000   0.0000   0.0000   0.0000   0.0000
     0.0000   0.0000   0.0000   0.0000   0.0000   0.0000   0.0000   0.0000
     0.0000   0.0000   0.0000   0.0000   0.0000   0.0000   0.0000   0.0000
     0.0000   0.0000   0.0000   0.0000   0.0000   0.0000   0.0000   0.0000
     0.0000   0.0000   0.0000   0.0000   0.0000   0.0000   0.0000   0.0000
     0.0000   0.0000   0.0000   0.0000   0.0000   0.0000   0.0000   0.0000
     0.0000   0.0000   0.0000   0.0000   0.0000   0.0000   0.0000   0.0000
     0.0000   0.0000   0.0000   0.0000   0.0000   0.0000   0.0000   0.0000
     0.0000   0.0000   0.0000   0.0000   0.0000   0.0000   0.0000   0.0000
     0.0000   0.0000   0.0000   0.0000   0.0000   0.0000   0.0000   0.0000
     0.0000   0.0000   0.0000   0.0000   0.0000   0.0000   0.0000   0.0000
     0.0000   0.0000   0.0000   0.0000   0.0000   0.0000   0.0000   0.0000

          k = 0.0000-0.2309 0.0297 ( 14833 PWs)   bands (ev):

   -66.6779 -40.8662 -40.7867 -40.6712 -19.5908 -18.5751 -11.1750  -9.5951
    -9.2266  -8.2026  -8.0004  -7.1061  -6.4508  -3.7151  -3.3451  -3.2106
    -2.2879   0.4909   0.6026   2.2610   2.9634   3.0819   3.7503   3.8999
     5.6695   5.9472   6.5179   6.5943   6.6107   7.2676   8.2888   8.8535
     9.0763  11.0457  11.1792  11.3033  12.6445  12.7671  13.9998  14.1039
    14.7708  14.9406  15.5273  15.9220  16.0147  16.2699  16.5534  16.7182
    17.2246  17.7297  17.8119  18.1326  18.1564  18.7674  18.9032  19.2152
    19.4499  19.5993  19.9220  21.1549  21.3838  21.5457  21.8450  22.1619
    22.9535  23.2165  23.7540  23.7733  24.1676  24.1769  24.4566  24.8121
    25.0456  25.2141  25.2723  25.4832  25.9325  26.1405  26.3065  26.5490
    27.0750  27.2544  27.4539  27.5516  27.7604  27.8678  28.3608  28.4983
    28.7410  28.8156  29.2271  29.3133  29.4476  29.7550  29.9903  30.3658
    30.6090  31.0270  31.2396  31.4159  31.6147  31.8609  32.0858  32.4237
    32.7698  33.0280  33.3796  33.5029  33.6455  33.8981  34.4100  34.8586
    34.9592  35.1953  35.4276  35.5976  36.1765  36.5190  36.5412  37.0466
    37.1451  37.6278  37.8085  37.9013  38.1982  38.5479  38.7089  39.2253
    39.6069  39.8945  40.1413  40.5238  40.9099  41.0790  41.1299  41.3511
    41.4921  41.8984  41.9302  42.4586  42.7116  42.8801  42.9507  43.1716
    43.5674  43.7920  44.2127  44.7690  44.8555  44.9057  45.3956  45.3984
    45.7223  45.9435  46.0406  46.3617  46.8913  47.0062  47.3409  47.7517
    48.0465  48.4594  48.5695  48.5795  49.0501  49.2003  49.2942  49.4642
    49.5634  49.9263  50.2765  50.3281  50.6611  50.8283  51.1498  51.2084
    51.6050  51.7185  51.7634  51.9457  52.1217  52.3625  52.5228  52.7467
    53.2185  53.6324  54.0182  54.3678  54.4647  54.4665  54.8199  54.9815
    55.4831  55.7792  55.8271  55.9596  56.1432  56.4396  56.5057  56.8800

     occupation numbers 
     1.0000   1.0000   1.0000   1.0000   1.0000   1.0000   1.0000   1.0000
     1.0000   1.0000   1.0000   1.0000   1.0000   0.0000   0.0000   0.0000
     0.0000   0.0000   0.0000   0.0000   0.0000   0.0000   0.0000   0.0000
     0.0000   0.0000   0.0000   0.0000   0.0000   0.0000   0.0000   0.0000
     0.0000   0.0000   0.0000   0.0000   0.0000   0.0000   0.0000   0.0000
     0.0000   0.0000   0.0000   0.0000   0.0000   0.0000   0.0000   0.0000
     0.0000   0.0000   0.0000   0.0000   0.0000   0.0000   0.0000   0.0000
     0.0000   0.0000   0.0000   0.0000   0.0000   0.0000   0.0000   0.0000
     0.0000   0.0000   0.0000   0.0000   0.0000   0.0000   0.0000   0.0000
     0.0000   0.0000   0.0000   0.0000   0.0000   0.0000   0.0000   0.0000
     0.0000   0.0000   0.0000   0.0000   0.0000   0.0000   0.0000   0.0000
     0.0000   0.0000   0.0000   0.0000   0.0000   0.0000   0.0000   0.0000
     0.0000   0.0000   0.0000   0.0000   0.0000   0.0000   0.0000   0.0000
     0.0000   0.0000   0.0000   0.0000   0.0000   0.0000   0.0000   0.0000
     0.0000   0.0000   0.0000   0.0000   0.0000   0.0000   0.0000   0.0000
     0.0000   0.0000   0.0000   0.0000   0.0000   0.0000   0.0000   0.0000
     0.0000   0.0000   0.0000   0.0000   0.0000   0.0000   0.0000   0.0000
     0.0000   0.0000   0.0000   0.0000   0.0000   0.0000   0.0000   0.0000
     0.0000   0.0000   0.0000   0.0000   0.0000   0.0000   0.0000   0.0000
     0.0000   0.0000   0.0000   0.0000   0.0000   0.0000   0.0000   0.0000
     0.0000   0.0000   0.0000   0.0000   0.0000   0.0000   0.0000   0.0000
     0.0000   0.0000   0.0000   0.0000   0.0000   0.0000   0.0000   0.0000
     0.0000   0.0000   0.0000   0.0000   0.0000   0.0000   0.0000   0.0000
     0.0000   0.0000   0.0000   0.0000   0.0000   0.0000   0.0000   0.0000
     0.0000   0.0000   0.0000   0.0000   0.0000   0.0000   0.0000   0.0000

          k = 0.0833-0.1443 0.0372 ( 14866 PWs)   bands (ev):

   -66.6847 -40.8794 -40.7192 -40.6576 -19.8606 -18.6841 -11.3861  -9.2203
    -8.7285  -8.2798  -8.0168  -6.9171  -6.1988  -3.4900  -3.3915  -3.1589
    -2.5515   0.1587   0.2494   1.6992   2.5906   2.7102   4.0902   4.2478
     5.2717   5.5695   5.9376   6.3495   6.9239   6.9377   8.9541   9.1103
     9.5579  10.4748  10.9006  10.9246  12.8201  13.3430  14.3654  14.8589
    15.1996  15.2520  15.3856  15.7706  16.2831  16.6808  17.1719  17.4859
    17.7128  17.8479  17.9252  18.2153  18.9811  19.6775  19.8600  20.1723
    20.3651  20.4842  20.6980  20.9629  21.3180  21.3916  22.2076  22.3595
    22.4324  22.8770  23.1999  23.7905  23.8047  23.9080  24.3500  24.3980
    24.5272  25.0043  25.2286  25.5073  25.6296  25.6940  26.3810  26.4298
    26.6562  26.7996  27.1257  27.3582  27.4489  27.5636  27.7691  27.8694
    28.4207  28.4758  28.9542  29.2043  29.5281  29.6894  29.9597  30.1385
    30.2489  30.5207  30.7337  31.1058  31.1692  31.6491  31.6904  32.0915
    32.6307  32.6424  33.0513  33.2626  33.5499  33.8220  33.9214  34.4017
    34.6145  34.8142  35.0390  35.2966  35.7025  35.9816  36.3595  36.6667
    36.8353  37.1492  37.3202  37.4227  37.8262  38.0716  38.4192  38.7667
    39.1419  39.5785  40.0164  40.2038  40.4563  40.7876  41.0127  41.2335
    41.4564  41.8473  41.9361  42.1197  42.5456  42.7162  43.0853  43.1230
    43.2675  43.6483  43.8072  44.2506  44.5031  44.7374  44.9980  45.2984
    45.4805  45.9064  46.4009  46.7266  46.9199  46.9864  47.2852  47.3254
    47.4759  48.0670  48.2951  48.9392  48.9544  49.1549  49.6323  49.9297
    50.4519  50.6309  50.7850  50.9743  51.0838  51.2760  51.8868  52.1014
    52.3925  52.5407  52.7495  52.9387  53.1011  53.4800  53.6253  54.0157
    54.1695  54.5797  54.7309  54.9965  55.2260  55.3166  55.5056  55.6823
    55.8671  56.2087  56.3208  56.6220  56.7416  57.0010  57.2077  57.3273

     occupation numbers 
     1.0000   1.0000   1.0000   1.0000   1.0000   1.0000   1.0000   1.0000
     1.0000   1.0000   1.0000   1.0000   1.0000   0.0000   0.0000   0.0000
     0.0000   0.0000   0.0000   0.0000   0.0000   0.0000   0.0000   0.0000
     0.0000   0.0000   0.0000   0.0000   0.0000   0.0000   0.0000   0.0000
     0.0000   0.0000   0.0000   0.0000   0.0000   0.0000   0.0000   0.0000
     0.0000   0.0000   0.0000   0.0000   0.0000   0.0000   0.0000   0.0000
     0.0000   0.0000   0.0000   0.0000   0.0000   0.0000   0.0000   0.0000
     0.0000   0.0000   0.0000   0.0000   0.0000   0.0000   0.0000   0.0000
     0.0000   0.0000   0.0000   0.0000   0.0000   0.0000   0.0000   0.0000
     0.0000   0.0000   0.0000   0.0000   0.0000   0.0000   0.0000   0.0000
     0.0000   0.0000   0.0000   0.0000   0.0000   0.0000   0.0000   0.0000
     0.0000   0.0000   0.0000   0.0000   0.0000   0.0000   0.0000   0.0000
     0.0000   0.0000   0.0000   0.0000   0.0000   0.0000   0.0000   0.0000
     0.0000   0.0000   0.0000   0.0000   0.0000   0.0000   0.0000   0.0000
     0.0000   0.0000   0.0000   0.0000   0.0000   0.0000   0.0000   0.0000
     0.0000   0.0000   0.0000   0.0000   0.0000   0.0000   0.0000   0.0000
     0.0000   0.0000   0.0000   0.0000   0.0000   0.0000   0.0000   0.0000
     0.0000   0.0000   0.0000   0.0000   0.0000   0.0000   0.0000   0.0000
     0.0000   0.0000   0.0000   0.0000   0.0000   0.0000   0.0000   0.0000
     0.0000   0.0000   0.0000   0.0000   0.0000   0.0000   0.0000   0.0000
     0.0000   0.0000   0.0000   0.0000   0.0000   0.0000   0.0000   0.0000
     0.0000   0.0000   0.0000   0.0000   0.0000   0.0000   0.0000   0.0000
     0.0000   0.0000   0.0000   0.0000   0.0000   0.0000   0.0000   0.0000
     0.0000   0.0000   0.0000   0.0000   0.0000   0.0000   0.0000   0.0000
     0.0000   0.0000   0.0000   0.0000   0.0000   0.0000   0.0000   0.0000

          k = 0.1667-0.0577 0.0446 ( 14855 PWs)   bands (ev):

   -66.6837 -40.8776 -40.7293 -40.6588 -19.8243 -18.6694 -11.3537  -9.2811
    -8.8254  -8.2375  -7.9870  -6.9788  -6.2307  -3.5377  -3.3439  -3.1772
    -2.5337   0.2012   0.2960   1.7877   2.6503   2.7476   4.0130   4.2033
     5.3144   5.7615   5.9531   6.4083   6.8199   7.0181   8.6870   9.1586
     9.4739  10.6758  10.8774  10.9582  12.9747  13.4503  14.1235  14.2173
    15.0130  15.3436  15.7310  16.2099  16.4437  16.7338  16.7734  16.9839
    17.6142  18.1390  18.2073  18.4929  18.5193  18.7864  19.2587  19.7609
    20.0614  20.6369  20.6923  21.1884  21.3550  21.7287  22.1941  22.2932
    23.0006  23.0912  23.2470  23.5651  23.6472  24.0916  24.2146  24.6117
    24.6438  24.8656  25.3647  25.4029  25.9535  26.0039  26.2178  26.3233
    26.6760  26.7535  27.0572  27.1884  27.7217  27.8223  27.9510  28.3103
    28.4016  28.6302  28.8831  28.9700  29.3640  29.5485  29.8227  29.8973
    30.2970  30.6491  30.9663  31.2238  31.3512  31.5952  31.8461  31.9918
    32.4581  32.7687  33.0887  33.2623  33.5410  33.9665  34.1952  34.4919
    34.7131  34.8950  35.1220  35.5000  35.7095  35.8962  36.1907  36.4118
    36.7406  36.9512  37.4592  37.6392  38.0490  38.3975  38.6121  38.9283
    39.2259  39.8004  39.9496  40.0838  40.4453  40.7809  41.0473  41.2722
    41.4571  41.8202  42.1043  42.2576  42.5809  42.7545  42.8865  43.0539
    43.2804  43.7324  43.9574  44.1011  44.2696  44.7493  45.1995  45.3908
    45.6173  45.8615  46.3052  46.5241  46.6559  47.2101  47.3903  47.6645
    47.7876  48.0319  48.3514  48.6573  49.1132  49.4367  49.7214  49.9357
    50.3382  50.5433  50.6953  50.8758  51.0523  51.3117  51.6915  51.9274
    52.1957  52.4048  52.5806  52.8565  53.0474  53.1861  53.3923  53.6407
    53.9229  54.2733  54.3406  54.6033  54.9190  55.0138  55.4213  55.4866
    55.7726  55.9622  56.2197  56.3260  56.4994  56.9194  57.1737  57.4119

     occupation numbers 
     1.0000   1.0000   1.0000   1.0000   1.0000   1.0000   1.0000   1.0000
     1.0000   1.0000   1.0000   1.0000   1.0000   0.0000   0.0000   0.0000
     0.0000   0.0000   0.0000   0.0000   0.0000   0.0000   0.0000   0.0000
     0.0000   0.0000   0.0000   0.0000   0.0000   0.0000   0.0000   0.0000
     0.0000   0.0000   0.0000   0.0000   0.0000   0.0000   0.0000   0.0000
     0.0000   0.0000   0.0000   0.0000   0.0000   0.0000   0.0000   0.0000
     0.0000   0.0000   0.0000   0.0000   0.0000   0.0000   0.0000   0.0000
     0.0000   0.0000   0.0000   0.0000   0.0000   0.0000   0.0000   0.0000
     0.0000   0.0000   0.0000   0.0000   0.0000   0.0000   0.0000   0.0000
     0.0000   0.0000   0.0000   0.0000   0.0000   0.0000   0.0000   0.0000
     0.0000   0.0000   0.0000   0.0000   0.0000   0.0000   0.0000   0.0000
     0.0000   0.0000   0.0000   0.0000   0.0000   0.0000   0.0000   0.0000
     0.0000   0.0000   0.0000   0.0000   0.0000   0.0000   0.0000   0.0000
     0.0000   0.0000   0.0000   0.0000   0.0000   0.0000   0.0000   0.0000
     0.0000   0.0000   0.0000   0.0000   0.0000   0.0000   0.0000   0.0000
     0.0000   0.0000   0.0000   0.0000   0.0000   0.0000   0.0000   0.0000
     0.0000   0.0000   0.0000   0.0000   0.0000   0.0000   0.0000   0.0000
     0.0000   0.0000   0.0000   0.0000   0.0000   0.0000   0.0000   0.0000
     0.0000   0.0000   0.0000   0.0000   0.0000   0.0000   0.0000   0.0000
     0.0000   0.0000   0.0000   0.0000   0.0000   0.0000   0.0000   0.0000
     0.0000   0.0000   0.0000   0.0000   0.0000   0.0000   0.0000   0.0000
     0.0000   0.0000   0.0000   0.0000   0.0000   0.0000   0.0000   0.0000
     0.0000   0.0000   0.0000   0.0000   0.0000   0.0000   0.0000   0.0000
     0.0000   0.0000   0.0000   0.0000   0.0000   0.0000   0.0000   0.0000
     0.0000   0.0000   0.0000   0.0000   0.0000   0.0000   0.0000   0.0000

          k = 0.2500 0.0289 0.0520 ( 14839 PWs)   bands (ev):

   -66.6755 -40.8614 -40.8040 -40.6831 -19.4898 -18.5337 -11.0972  -9.6811
    -9.2377  -8.6359  -7.9745  -6.8933  -6.5248  -3.8251  -3.3908  -3.3681
    -2.0623   0.6489   0.7449   2.6643   3.1047   3.2377   3.6857   4.0564
     5.4503   5.6939   6.2149   6.4135   7.1865   7.2587   8.0299   8.8689
     9.4801  10.7201  11.5106  11.6173  12.8671  12.8695  13.7080  13.7889
    14.2986  14.6249  15.0899  15.1422  15.8180  15.8830  16.2050  16.6692
    16.9751  17.6687  17.7735  18.1534  18.5217  18.6583  19.1777  19.5861
    19.7089  19.9585  20.3396  21.3444  21.4501  21.6977  22.0450  22.1915
    22.3516  22.4849  23.2527  23.4135  23.5361  23.8868  24.2830  24.5819
    24.8448  25.0330  25.2716  25.5691  25.9814  26.2070  26.6966  26.8582
    27.0608  27.3592  27.5481  27.8684  28.1000  28.2974  28.5518  28.7354
    28.8806  29.1312  29.2667  29.5075  29.9292  30.0426  30.3654  30.6315
    30.8174  30.8913  31.2051  31.4848  31.6193  31.9418  32.2085  32.5676
    32.9166  33.1644  33.2808  33.6600  34.0081  34.1612  34.5150  34.7785
    34.9157  35.3739  35.7368  35.9147  36.1299  36.3426  36.5984  36.7190
    37.5312  37.7213  37.9400  38.0395  38.3560  38.7684  39.0449  39.1862
    39.5649  39.9442  40.2665  40.4618  40.7597  40.9709  41.1661  41.3906
    41.7240  42.0218  42.2471  42.4602  42.7530  43.0955  43.2500  43.5219
    43.6176  43.9710  44.3503  44.5969  44.7723  45.0764  45.2421  45.5832
    45.7769  46.0177  46.2710  46.5288  46.8123  47.0120  47.1653  47.4126
    47.5983  47.7622  48.0179  48.2788  48.6413  48.7187  48.9544  49.2944
    49.6348  49.7988  49.9366  50.2640  50.4550  50.7658  50.9635  51.3274
    51.4873  51.8818  52.2457  52.3996  52.5776  52.7790  53.0195  53.1632
    53.6527  53.7494  53.8602  54.0913  54.5059  54.6745  54.8711  54.9399
    55.0879  55.3936  55.5273  55.8021  55.9986  56.3364  56.4526  56.7502

     occupation numbers 
     1.0000   1.0000   1.0000   1.0000   1.0000   1.0000   1.0000   1.0000
     1.0000   1.0000   1.0000   1.0000   1.0000   0.0000   0.0000   0.0000
     0.0000   0.0000   0.0000   0.0000   0.0000   0.0000   0.0000   0.0000
     0.0000   0.0000   0.0000   0.0000   0.0000   0.0000   0.0000   0.0000
     0.0000   0.0000   0.0000   0.0000   0.0000   0.0000   0.0000   0.0000
     0.0000   0.0000   0.0000   0.0000   0.0000   0.0000   0.0000   0.0000
     0.0000   0.0000   0.0000   0.0000   0.0000   0.0000   0.0000   0.0000
     0.0000   0.0000   0.0000   0.0000   0.0000   0.0000   0.0000   0.0000
     0.0000   0.0000   0.0000   0.0000   0.0000   0.0000   0.0000   0.0000
     0.0000   0.0000   0.0000   0.0000   0.0000   0.0000   0.0000   0.0000
     0.0000   0.0000   0.0000   0.0000   0.0000   0.0000   0.0000   0.0000
     0.0000   0.0000   0.0000   0.0000   0.0000   0.0000   0.0000   0.0000
     0.0000   0.0000   0.0000   0.0000   0.0000   0.0000   0.0000   0.0000
     0.0000   0.0000   0.0000   0.0000   0.0000   0.0000   0.0000   0.0000
     0.0000   0.0000   0.0000   0.0000   0.0000   0.0000   0.0000   0.0000
     0.0000   0.0000   0.0000   0.0000   0.0000   0.0000   0.0000   0.0000
     0.0000   0.0000   0.0000   0.0000   0.0000   0.0000   0.0000   0.0000
     0.0000   0.0000   0.0000   0.0000   0.0000   0.0000   0.0000   0.0000
     0.0000   0.0000   0.0000   0.0000   0.0000   0.0000   0.0000   0.0000
     0.0000   0.0000   0.0000   0.0000   0.0000   0.0000   0.0000   0.0000
     0.0000   0.0000   0.0000   0.0000   0.0000   0.0000   0.0000   0.0000
     0.0000   0.0000   0.0000   0.0000   0.0000   0.0000   0.0000   0.0000
     0.0000   0.0000   0.0000   0.0000   0.0000   0.0000   0.0000   0.0000
     0.0000   0.0000   0.0000   0.0000   0.0000   0.0000   0.0000   0.0000
     0.0000   0.0000   0.0000   0.0000   0.0000   0.0000   0.0000   0.0000

          k = 0.3333 0.1155 0.0595 ( 14819 PWs)   bands (ev):

   -66.6634 -40.9185 -40.8378 -40.7100 -18.9531 -18.3194 -11.1724 -10.0249
    -9.8736  -8.9064  -7.6163  -7.3452  -6.8684  -3.8328  -3.4714  -2.8072
    -1.7203   1.2989   1.4611   2.4188   2.7993   3.2507   4.0557   4.3464
     5.7616   6.1057   6.4393   6.8183   7.1552   8.0763   8.7442   9.2426
     9.4531  10.0339  10.1486  11.4049  12.2218  12.2528  12.5700  12.7329
    13.5179  13.7696  15.0724  15.2906  15.3764  15.9444  16.0128  16.4725
    16.5660  17.1014  17.4317  17.9546  18.3151  18.7497  18.8182  18.8684
    19.2414  19.8246  20.2693  20.4173  20.5799  21.0071  21.1101  21.8330
    22.2933  22.6191  22.7763  23.0987  23.5425  23.9064  24.3292  24.5663
    24.8618  25.0696  25.3760  25.6336  25.7909  26.3654  26.5982  26.8575
    26.9754  27.1968  27.9525  28.1852  28.3890  28.5333  29.1520  29.3333
    29.5590  29.8516  30.0316  30.2851  30.6618  30.9562  31.1735  31.3233
    31.8591  31.9328  32.0368  32.5284  32.8556  33.1676  33.2437  33.4590
    33.5106  34.1016  34.5962  34.6772  34.7921  34.9271  35.4227  35.4856
    35.8457  36.2710  36.3819  36.6735  36.7678  37.0107  37.1824  37.3787
    37.6635  37.8412  38.4291  38.6632  38.9591  39.1216  39.4171  39.9215
    40.0373  40.2294  40.5567  40.7593  41.1551  41.3408  41.5949  41.6947
    41.9224  42.1064  42.5837  42.6395  43.0290  43.1030  43.2792  43.4820
    43.5902  43.9602  44.1839  44.4202  44.6023  45.0980  45.2164  45.4224
    45.4978  45.5854  45.8928  46.0102  46.3716  46.5646  46.7544  47.1634
    47.2966  47.5484  47.6797  48.0890  48.2395  48.3687  48.7219  48.8449
    49.1444  49.2122  49.3746  49.7229  49.9493  50.2557  50.4073  50.5424
    50.9137  51.2172  51.4795  51.6108  52.0245  52.1882  52.5003  52.7108
    52.9497  53.2157  53.3632  53.4649  53.7499  53.8888  54.0563  54.5155
    54.6179  54.7469  54.9629  55.7414  55.9184  56.0810  56.4383  56.6358

     occupation numbers 
     1.0000   1.0000   1.0000   1.0000   1.0000   1.0000   1.0000   1.0000
     1.0000   1.0000   1.0000   1.0000   1.0000   0.0000   0.0000   0.0000
     0.0000   0.0000   0.0000   0.0000   0.0000   0.0000   0.0000   0.0000
     0.0000   0.0000   0.0000   0.0000   0.0000   0.0000   0.0000   0.0000
     0.0000   0.0000   0.0000   0.0000   0.0000   0.0000   0.0000   0.0000
     0.0000   0.0000   0.0000   0.0000   0.0000   0.0000   0.0000   0.0000
     0.0000   0.0000   0.0000   0.0000   0.0000   0.0000   0.0000   0.0000
     0.0000   0.0000   0.0000   0.0000   0.0000   0.0000   0.0000   0.0000
     0.0000   0.0000   0.0000   0.0000   0.0000   0.0000   0.0000   0.0000
     0.0000   0.0000   0.0000   0.0000   0.0000   0.0000   0.0000   0.0000
     0.0000   0.0000   0.0000   0.0000   0.0000   0.0000   0.0000   0.0000
     0.0000   0.0000   0.0000   0.0000   0.0000   0.0000   0.0000   0.0000
     0.0000   0.0000   0.0000   0.0000   0.0000   0.0000   0.0000   0.0000
     0.0000   0.0000   0.0000   0.0000   0.0000   0.0000   0.0000   0.0000
     0.0000   0.0000   0.0000   0.0000   0.0000   0.0000   0.0000   0.0000
     0.0000   0.0000   0.0000   0.0000   0.0000   0.0000   0.0000   0.0000
     0.0000   0.0000   0.0000   0.0000   0.0000   0.0000   0.0000   0.0000
     0.0000   0.0000   0.0000   0.0000   0.0000   0.0000   0.0000   0.0000
     0.0000   0.0000   0.0000   0.0000   0.0000   0.0000   0.0000   0.0000
     0.0000   0.0000   0.0000   0.0000   0.0000   0.0000   0.0000   0.0000
     0.0000   0.0000   0.0000   0.0000   0.0000   0.0000   0.0000   0.0000
     0.0000   0.0000   0.0000   0.0000   0.0000   0.0000   0.0000   0.0000
     0.0000   0.0000   0.0000   0.0000   0.0000   0.0000   0.0000   0.0000
     0.0000   0.0000   0.0000   0.0000   0.0000   0.0000   0.0000   0.0000
     0.0000   0.0000   0.0000   0.0000   0.0000   0.0000   0.0000   0.0000

          k = 0.4167 0.2021 0.0669 ( 14773 PWs)   bands (ev):

   -66.6530 -41.0204 -40.8173 -40.7284 -18.4151 -18.1143 -11.6538 -10.6582
    -9.9955  -9.0759  -7.7560  -7.1584  -6.7667  -3.6458  -3.3086  -2.1919
    -1.5871   0.9558   1.8045   2.0045   2.8653   3.6214   4.3740   4.6946
     5.6635   5.7505   6.3211   7.2834   7.5132   8.6469   8.7143   9.1170
     9.7235  10.2310  10.3839  10.8372  10.9380  12.0337  12.7784  12.8664
    13.6306  13.7045  14.0168  14.3587  15.1393  15.1635  15.7555  16.4385
    16.5197  16.7227  17.2115  17.4542  17.7020  18.3997  18.6145  19.0054
    19.0588  19.7180  19.7880  20.0273  20.1536  20.3005  20.9775  21.4167
    21.7751  21.9738  22.3649  22.6277  23.1661  23.3747  23.8101  24.3122
    24.8648  25.1832  25.3293  25.7386  26.1509  26.4709  27.0456  27.2202
    27.3917  27.8237  28.0548  28.6755  29.3333  29.4744  29.5256  29.7653
    30.1770  30.6035  30.9627  31.2306  31.5630  31.6615  32.1111  32.2755
    32.3430  32.5722  32.7410  32.9272  33.0783  33.5323  33.7779  34.0904
    34.3896  34.9626  35.0301  35.2165  35.3568  35.7010  35.9877  36.0761
    36.5396  36.7828  37.0909  37.5018  37.6478  37.7915  37.9540  38.2461
    38.3829  38.8187  38.8934  39.0788  39.2974  39.5026  39.6598  40.0772
    40.1425  40.7246  40.7726  40.8077  40.9273  41.1094  41.4395  41.6478
    41.8609  42.1320  42.2456  42.4960  42.7176  43.0010  43.2146  43.3885
    43.4931  43.7800  44.1229  44.2055  44.4045  44.4550  44.7107  45.1065
    45.3767  45.6554  45.9962  46.1157  46.2920  46.4667  46.7268  46.8479
    47.1924  47.4281  47.7719  47.9663  48.3323  48.4419  48.5492  48.8192
    48.9764  49.4123  49.4545  49.7378  50.0341  50.0585  50.3989  50.5144
    50.7808  51.1165  51.3025  51.4498  51.6033  51.6824  52.0861  52.1812
    52.4511  52.6325  52.7401  53.0102  53.1223  53.6715  53.7722  53.9646
    54.3170  54.4019  54.7902  54.9237  55.0238  55.1348  55.4674  55.6149

     occupation numbers 
     1.0000   1.0000   1.0000   1.0000   1.0000   1.0000   1.0000   1.0000
     1.0000   1.0000   1.0000   1.0000   1.0000   0.0000   0.0000   0.0000
     0.0000   0.0000   0.0000   0.0000   0.0000   0.0000   0.0000   0.0000
     0.0000   0.0000   0.0000   0.0000   0.0000   0.0000   0.0000   0.0000
     0.0000   0.0000   0.0000   0.0000   0.0000   0.0000   0.0000   0.0000
     0.0000   0.0000   0.0000   0.0000   0.0000   0.0000   0.0000   0.0000
     0.0000   0.0000   0.0000   0.0000   0.0000   0.0000   0.0000   0.0000
     0.0000   0.0000   0.0000   0.0000   0.0000   0.0000   0.0000   0.0000
     0.0000   0.0000   0.0000   0.0000   0.0000   0.0000   0.0000   0.0000
     0.0000   0.0000   0.0000   0.0000   0.0000   0.0000   0.0000   0.0000
     0.0000   0.0000   0.0000   0.0000   0.0000   0.0000   0.0000   0.0000
     0.0000   0.0000   0.0000   0.0000   0.0000   0.0000   0.0000   0.0000
     0.0000   0.0000   0.0000   0.0000   0.0000   0.0000   0.0000   0.0000
     0.0000   0.0000   0.0000   0.0000   0.0000   0.0000   0.0000   0.0000
     0.0000   0.0000   0.0000   0.0000   0.0000   0.0000   0.0000   0.0000
     0.0000   0.0000   0.0000   0.0000   0.0000   0.0000   0.0000   0.0000
     0.0000   0.0000   0.0000   0.0000   0.0000   0.0000   0.0000   0.0000
     0.0000   0.0000   0.0000   0.0000   0.0000   0.0000   0.0000   0.0000
     0.0000   0.0000   0.0000   0.0000   0.0000   0.0000   0.0000   0.0000
     0.0000   0.0000   0.0000   0.0000   0.0000   0.0000   0.0000   0.0000
     0.0000   0.0000   0.0000   0.0000   0.0000   0.0000   0.0000   0.0000
     0.0000   0.0000   0.0000   0.0000   0.0000   0.0000   0.0000   0.0000
     0.0000   0.0000   0.0000   0.0000   0.0000   0.0000   0.0000   0.0000
     0.0000   0.0000   0.0000   0.0000   0.0000   0.0000   0.0000   0.0000
     0.0000   0.0000   0.0000   0.0000   0.0000   0.0000   0.0000   0.0000

          k = 0.5000 0.2887 0.0743 ( 14744 PWs)   bands (ev):

   -66.6490 -41.0607 -40.8092 -40.7349 -18.1758 -18.0277 -11.9001 -10.8904
   -10.1232  -9.1755  -7.8662  -6.8690  -6.6203  -3.5904  -3.0775  -2.0251
    -1.5035   0.1960   1.8572   2.3340   3.1010   3.7794   4.5699   5.1579
     5.3297   5.6768   5.8121   7.0081   7.3954   7.9113   8.4178   9.6496
    10.1670  10.2358  10.9112  11.3378  11.6921  12.0760  12.4255  13.0189
    13.5217  13.6512  14.0279  14.1098  14.6772  15.1870  15.8399  16.2070
    16.2204  16.6408  16.8170  17.1313  17.6221  17.6564  18.3177  18.5706
    18.7979  18.8044  19.2829  19.3523  20.3321  20.8714  20.9715  21.2727
    21.6522  22.1412  22.1732  22.6143  23.1672  23.3244  24.0993  24.6315
    25.2846  25.4932  25.6024  25.9397  26.4785  26.6007  26.8078  26.8873
    27.3252  27.8195  27.8692  28.0722  29.1930  29.7481  30.1279  30.1608
    30.4444  30.6783  30.9725  31.1932  32.1980  32.2355  32.4814  32.7829
    32.9510  32.9583  33.3167  33.5343  33.7054  34.0349  34.9528  35.0292
    35.0551  35.1162  35.2883  35.3418  35.8120  35.8301  36.2076  36.2086
    36.4603  36.5041  36.7557  36.8901  37.3885  37.5687  37.8476  37.9504
    38.0450  38.4484  38.5575  38.6897  39.0204  39.2849  39.8098  40.1246
    40.1734  40.4334  40.6613  41.0387  41.2096  41.2655  41.3843  41.8438
    41.9808  42.2750  42.3729  42.5284  43.1091  43.4462  43.6419  43.6749
    43.9863  44.0115  44.4493  44.5154  44.9408  45.1905  45.4397  45.6880
    45.8780  45.9976  46.0832  46.1869  46.3515  46.4287  46.4825  46.7235
    47.2317  47.4731  47.5904  47.6355  48.1771  48.4067  48.4551  48.5806
    48.8456  49.1305  49.2331  49.3622  49.5294  49.6689  49.8354  50.2652
    50.7262  50.8301  50.8717  51.1815  51.3244  51.4529  51.8972  52.2450
    52.2679  52.2894  52.7537  52.8415  52.8947  53.1624  53.3123  53.4041
    53.9127  53.9631  54.0418  54.1478  54.2338  54.3302  54.9651  55.8258

     occupation numbers 
     1.0000   1.0000   1.0000   1.0000   1.0000   1.0000   1.0000   1.0000
     1.0000   1.0000   1.0000   1.0000   1.0000   0.0000   0.0000   0.0000
     0.0000   0.0000   0.0000   0.0000   0.0000   0.0000   0.0000   0.0000
     0.0000   0.0000   0.0000   0.0000   0.0000   0.0000   0.0000   0.0000
     0.0000   0.0000   0.0000   0.0000   0.0000   0.0000   0.0000   0.0000
     0.0000   0.0000   0.0000   0.0000   0.0000   0.0000   0.0000   0.0000
     0.0000   0.0000   0.0000   0.0000   0.0000   0.0000   0.0000   0.0000
     0.0000   0.0000   0.0000   0.0000   0.0000   0.0000   0.0000   0.0000
     0.0000   0.0000   0.0000   0.0000   0.0000   0.0000   0.0000   0.0000
     0.0000   0.0000   0.0000   0.0000   0.0000   0.0000   0.0000   0.0000
     0.0000   0.0000   0.0000   0.0000   0.0000   0.0000   0.0000   0.0000
     0.0000   0.0000   0.0000   0.0000   0.0000   0.0000   0.0000   0.0000
     0.0000   0.0000   0.0000   0.0000   0.0000   0.0000   0.0000   0.0000
     0.0000   0.0000   0.0000   0.0000   0.0000   0.0000   0.0000   0.0000
     0.0000   0.0000   0.0000   0.0000   0.0000   0.0000   0.0000   0.0000
     0.0000   0.0000   0.0000   0.0000   0.0000   0.0000   0.0000   0.0000
     0.0000   0.0000   0.0000   0.0000   0.0000   0.0000   0.0000   0.0000
     0.0000   0.0000   0.0000   0.0000   0.0000   0.0000   0.0000   0.0000
     0.0000   0.0000   0.0000   0.0000   0.0000   0.0000   0.0000   0.0000
     0.0000   0.0000   0.0000   0.0000   0.0000   0.0000   0.0000   0.0000
     0.0000   0.0000   0.0000   0.0000   0.0000   0.0000   0.0000   0.0000
     0.0000   0.0000   0.0000   0.0000   0.0000   0.0000   0.0000   0.0000
     0.0000   0.0000   0.0000   0.0000   0.0000   0.0000   0.0000   0.0000
     0.0000   0.0000   0.0000   0.0000   0.0000   0.0000   0.0000   0.0000
     0.0000   0.0000   0.0000   0.0000   0.0000   0.0000   0.0000   0.0000

          k = 0.4000 0.2309 0.0595 ( 14762 PWs)   bands (ev):

   -66.6532 -41.0214 -40.8176 -40.7257 -18.4223 -18.1182 -11.6667 -10.6485
   -10.0038  -9.0546  -7.7740  -7.0178  -6.8568  -3.6414  -3.3214  -2.1783
    -1.5766   0.9357   1.7433   1.9640   2.8401   3.5903   4.3609   4.6922
     5.7387   5.8053   6.2552   7.2543   7.5129   8.6566   8.7902   9.1139
     9.7055  10.1945  10.5100  10.7590  11.0391  11.9448  12.7782  12.7847
    13.5910  13.9298  14.1820  14.5575  14.8345  15.3518  16.0768  16.3541
    16.3743  16.6630  16.7704  17.7723  17.9612  18.3442  18.5852  18.6895
    18.8769  19.7283  19.8671  19.9491  20.1917  20.2098  21.1221  21.5157
    21.7460  22.2141  22.3083  22.4416  22.7654  23.3305  23.7099  24.2933
    24.9604  25.5391  25.5836  25.5873  26.0044  26.7537  27.0043  27.2195
    27.3503  27.6314  27.7034  28.4624  29.2894  29.7178  29.7689  30.1598
    30.3352  30.7080  31.1792  31.2455  31.4474  31.4762  31.8959  32.1351
    32.4401  32.5343  32.8294  33.0471  33.1769  33.5494  33.6130  34.0563
    34.1691  34.7244  34.9190  35.2601  35.3938  35.6813  36.0281  36.4207
    36.4825  36.7515  37.0548  37.3055  37.4988  38.0429  38.2037  38.3110
    38.4375  38.5817  38.7818  39.3246  39.3597  39.7083  39.7363  39.9097
    40.0233  40.6538  40.7445  40.8298  40.8789  41.2706  41.5298  41.7881
    41.9236  41.9480  42.2623  42.5385  42.5417  42.8684  42.9252  43.3313
    43.5084  43.7887  43.9467  43.9812  44.2260  44.6678  44.9410  45.1149
    45.2440  45.5985  45.8478  46.2922  46.3020  46.6232  46.8712  46.9485
    47.3399  47.3593  47.5773  47.8773  48.2780  48.3261  48.5601  48.6061
    49.1853  49.4047  49.7885  49.8658  49.8834  50.3416  50.3922  50.5162
    50.8556  50.9272  50.9722  51.2910  51.3307  51.6742  51.9348  52.3694
    52.5493  52.6825  52.9071  52.9414  53.2276  53.5159  53.5937  54.0808
    54.3079  54.3184  54.5945  54.9353  55.0339  55.1392  55.3754  55.7273

     occupation numbers 
     1.0000   1.0000   1.0000   1.0000   1.0000   1.0000   1.0000   1.0000
     1.0000   1.0000   1.0000   1.0000   1.0000   0.0000   0.0000   0.0000
     0.0000   0.0000   0.0000   0.0000   0.0000   0.0000   0.0000   0.0000
     0.0000   0.0000   0.0000   0.0000   0.0000   0.0000   0.0000   0.0000
     0.0000   0.0000   0.0000   0.0000   0.0000   0.0000   0.0000   0.0000
     0.0000   0.0000   0.0000   0.0000   0.0000   0.0000   0.0000   0.0000
     0.0000   0.0000   0.0000   0.0000   0.0000   0.0000   0.0000   0.0000
     0.0000   0.0000   0.0000   0.0000   0.0000   0.0000   0.0000   0.0000
     0.0000   0.0000   0.0000   0.0000   0.0000   0.0000   0.0000   0.0000
     0.0000   0.0000   0.0000   0.0000   0.0000   0.0000   0.0000   0.0000
     0.0000   0.0000   0.0000   0.0000   0.0000   0.0000   0.0000   0.0000
     0.0000   0.0000   0.0000   0.0000   0.0000   0.0000   0.0000   0.0000
     0.0000   0.0000   0.0000   0.0000   0.0000   0.0000   0.0000   0.0000
     0.0000   0.0000   0.0000   0.0000   0.0000   0.0000   0.0000   0.0000
     0.0000   0.0000   0.0000   0.0000   0.0000   0.0000   0.0000   0.0000
     0.0000   0.0000   0.0000   0.0000   0.0000   0.0000   0.0000   0.0000
     0.0000   0.0000   0.0000   0.0000   0.0000   0.0000   0.0000   0.0000
     0.0000   0.0000   0.0000   0.0000   0.0000   0.0000   0.0000   0.0000
     0.0000   0.0000   0.0000   0.0000   0.0000   0.0000   0.0000   0.0000
     0.0000   0.0000   0.0000   0.0000   0.0000   0.0000   0.0000   0.0000
     0.0000   0.0000   0.0000   0.0000   0.0000   0.0000   0.0000   0.0000
     0.0000   0.0000   0.0000   0.0000   0.0000   0.0000   0.0000   0.0000
     0.0000   0.0000   0.0000   0.0000   0.0000   0.0000   0.0000   0.0000
     0.0000   0.0000   0.0000   0.0000   0.0000   0.0000   0.0000   0.0000
     0.0000   0.0000   0.0000   0.0000   0.0000   0.0000   0.0000   0.0000

          k = 0.3000 0.1732 0.0446 ( 14830 PWs)   bands (ev):

   -66.6643 -40.9175 -40.8393 -40.7014 -18.9904 -18.3360 -11.1972 -10.0232
    -9.8963  -8.7093  -7.4869  -7.4469  -6.9396  -3.6711  -3.6102  -2.6701
    -1.8277   1.2028   1.3846   2.2857   2.6422   3.1692   4.0140   4.2907
     5.7455   6.2821   6.7423   6.8521   7.4908   8.0703   8.8738   9.0127
     9.0166  10.0361  10.0398  11.6046  12.0122  12.0304  12.5181  12.5677
    14.2953  14.7219  14.9622  15.5303  15.7905  15.8896  15.9784  16.2509
    16.9196  17.0136  17.2417  17.9118  18.0949  18.1555  18.6475  19.0703
    19.2324  19.5856  19.6982  20.3942  20.7754  21.2180  21.5395  21.7621
    21.9118  22.7302  22.9285  23.0940  23.4567  23.6848  24.0175  24.4947
    24.8763  25.2769  25.3548  25.7228  25.9370  26.4925  26.9710  27.3536
    27.3791  27.6465  27.8758  28.0440  28.0827  28.4769  28.7640  28.9455
    29.4561  29.8078  30.2036  30.4136  30.6129  30.7872  31.3092  31.4520
    31.7530  31.7800  32.0534  32.2480  32.5739  32.8528  33.2351  33.4634
    33.5230  34.1072  34.4844  34.5414  34.6204  35.1848  35.2582  35.3642
    35.6081  36.2487  36.3771  36.4735  36.6242  36.7540  37.2646  37.8271
    37.9830  38.1763  38.2890  38.6038  38.7118  39.1262  39.2063  39.6413
    40.0230  40.1674  40.3937  40.6308  41.3595  41.4506  41.8275  41.8477
    42.4650  42.5486  42.5510  42.8248  42.9526  43.0565  43.2646  43.6180
    43.8271  44.0558  44.1760  44.3827  44.6149  44.7283  44.8008  45.1539
    45.3224  45.7875  45.8049  46.0072  46.3754  46.7254  46.7458  47.2317
    47.2863  47.5074  47.6532  47.8287  48.0677  48.2262  48.4682  48.8607
    49.0602  49.2156  49.4154  49.8377  50.1257  50.3692  50.3902  50.5604
    50.5705  50.9526  51.2397  51.5000  51.5372  52.2199  52.4355  52.4925
    52.6889  53.1098  53.3662  53.3719  53.8063  54.2555  54.4333  54.7058
    55.0262  55.0488  55.3596  55.5451  55.5509  55.8676  56.1082  56.4640

     occupation numbers 
     1.0000   1.0000   1.0000   1.0000   1.0000   1.0000   1.0000   1.0000
     1.0000   1.0000   1.0000   1.0000   1.0000   0.0000   0.0000   0.0000
     0.0000   0.0000   0.0000   0.0000   0.0000   0.0000   0.0000   0.0000
     0.0000   0.0000   0.0000   0.0000   0.0000   0.0000   0.0000   0.0000
     0.0000   0.0000   0.0000   0.0000   0.0000   0.0000   0.0000   0.0000
     0.0000   0.0000   0.0000   0.0000   0.0000   0.0000   0.0000   0.0000
     0.0000   0.0000   0.0000   0.0000   0.0000   0.0000   0.0000   0.0000
     0.0000   0.0000   0.0000   0.0000   0.0000   0.0000   0.0000   0.0000
     0.0000   0.0000   0.0000   0.0000   0.0000   0.0000   0.0000   0.0000
     0.0000   0.0000   0.0000   0.0000   0.0000   0.0000   0.0000   0.0000
     0.0000   0.0000   0.0000   0.0000   0.0000   0.0000   0.0000   0.0000
     0.0000   0.0000   0.0000   0.0000   0.0000   0.0000   0.0000   0.0000
     0.0000   0.0000   0.0000   0.0000   0.0000   0.0000   0.0000   0.0000
     0.0000   0.0000   0.0000   0.0000   0.0000   0.0000   0.0000   0.0000
     0.0000   0.0000   0.0000   0.0000   0.0000   0.0000   0.0000   0.0000
     0.0000   0.0000   0.0000   0.0000   0.0000   0.0000   0.0000   0.0000
     0.0000   0.0000   0.0000   0.0000   0.0000   0.0000   0.0000   0.0000
     0.0000   0.0000   0.0000   0.0000   0.0000   0.0000   0.0000   0.0000
     0.0000   0.0000   0.0000   0.0000   0.0000   0.0000   0.0000   0.0000
     0.0000   0.0000   0.0000   0.0000   0.0000   0.0000   0.0000   0.0000
     0.0000   0.0000   0.0000   0.0000   0.0000   0.0000   0.0000   0.0000
     0.0000   0.0000   0.0000   0.0000   0.0000   0.0000   0.0000   0.0000
     0.0000   0.0000   0.0000   0.0000   0.0000   0.0000   0.0000   0.0000
     0.0000   0.0000   0.0000   0.0000   0.0000   0.0000   0.0000   0.0000
     0.0000   0.0000   0.0000   0.0000   0.0000   0.0000   0.0000   0.0000

          k = 0.2000 0.1155 0.0297 ( 14833 PWs)   bands (ev):

   -66.6779 -40.8662 -40.7867 -40.6712 -19.5908 -18.5751 -11.1750  -9.5951
    -9.2266  -8.2026  -8.0004  -7.1061  -6.4508  -3.7151  -3.3451  -3.2106
    -2.2879   0.4909   0.6026   2.2610   2.9634   3.0819   3.7503   3.8999
     5.6695   5.9472   6.5179   6.5943   6.6107   7.2676   8.2888   8.8535
     9.0763  11.0457  11.1792  11.3033  12.6445  12.7671  13.9998  14.1039
    14.7708  14.9406  15.5273  15.9220  16.0147  16.2699  16.5534  16.7182
    17.2246  17.7297  17.8119  18.1326  18.1564  18.7674  18.9032  19.2152
    19.4499  19.5993  19.9220  21.1549  21.3838  21.5457  21.8450  22.1619
    22.9535  23.2165  23.7540  23.7733  24.1676  24.1769  24.4566  24.8121
    25.0456  25.2141  25.2723  25.4832  25.9325  26.1405  26.3065  26.5490
    27.0750  27.2544  27.4539  27.5516  27.7604  27.8678  28.3608  28.4983
    28.7410  28.8156  29.2271  29.3133  29.4476  29.7550  29.9903  30.3658
    30.6090  31.0270  31.2396  31.4159  31.6147  31.8609  32.0858  32.4237
    32.7698  33.0280  33.3796  33.5029  33.6455  33.8981  34.4100  34.8586
    34.9592  35.1953  35.4276  35.5976  36.1765  36.5190  36.5412  37.0466
    37.1451  37.6278  37.8085  37.9013  38.1982  38.5479  38.7089  39.2253
    39.6069  39.8945  40.1413  40.5238  40.9099  41.0790  41.1299  41.3511
    41.4921  41.8984  41.9302  42.4586  42.7116  42.8801  42.9507  43.1716
    43.5674  43.7920  44.2127  44.7690  44.8555  44.9057  45.3956  45.3984
    45.7223  45.9435  46.0406  46.3617  46.8913  47.0062  47.3409  47.7517
    48.0465  48.4594  48.5695  48.5795  49.0501  49.2003  49.2942  49.4642
    49.5634  49.9263  50.2765  50.3281  50.6611  50.8283  51.1498  51.2084
    51.6050  51.7185  51.7634  51.9457  52.1217  52.3625  52.5228  52.7467
    53.2185  53.6324  54.0182  54.3678  54.4647  54.4665  54.8199  54.9815
    55.4831  55.7792  55.8271  55.9596  56.1432  56.4396  56.5057  56.8800

     occupation numbers 
     1.0000   1.0000   1.0000   1.0000   1.0000   1.0000   1.0000   1.0000
     1.0000   1.0000   1.0000   1.0000   1.0000   0.0000   0.0000   0.0000
     0.0000   0.0000   0.0000   0.0000   0.0000   0.0000   0.0000   0.0000
     0.0000   0.0000   0.0000   0.0000   0.0000   0.0000   0.0000   0.0000
     0.0000   0.0000   0.0000   0.0000   0.0000   0.0000   0.0000   0.0000
     0.0000   0.0000   0.0000   0.0000   0.0000   0.0000   0.0000   0.0000
     0.0000   0.0000   0.0000   0.0000   0.0000   0.0000   0.0000   0.0000
     0.0000   0.0000   0.0000   0.0000   0.0000   0.0000   0.0000   0.0000
     0.0000   0.0000   0.0000   0.0000   0.0000   0.0000   0.0000   0.0000
     0.0000   0.0000   0.0000   0.0000   0.0000   0.0000   0.0000   0.0000
     0.0000   0.0000   0.0000   0.0000   0.0000   0.0000   0.0000   0.0000
     0.0000   0.0000   0.0000   0.0000   0.0000   0.0000   0.0000   0.0000
     0.0000   0.0000   0.0000   0.0000   0.0000   0.0000   0.0000   0.0000
     0.0000   0.0000   0.0000   0.0000   0.0000   0.0000   0.0000   0.0000
     0.0000   0.0000   0.0000   0.0000   0.0000   0.0000   0.0000   0.0000
     0.0000   0.0000   0.0000   0.0000   0.0000   0.0000   0.0000   0.0000
     0.0000   0.0000   0.0000   0.0000   0.0000   0.0000   0.0000   0.0000
     0.0000   0.0000   0.0000   0.0000   0.0000   0.0000   0.0000   0.0000
     0.0000   0.0000   0.0000   0.0000   0.0000   0.0000   0.0000   0.0000
     0.0000   0.0000   0.0000   0.0000   0.0000   0.0000   0.0000   0.0000
     0.0000   0.0000   0.0000   0.0000   0.0000   0.0000   0.0000   0.0000
     0.0000   0.0000   0.0000   0.0000   0.0000   0.0000   0.0000   0.0000
     0.0000   0.0000   0.0000   0.0000   0.0000   0.0000   0.0000   0.0000
     0.0000   0.0000   0.0000   0.0000   0.0000   0.0000   0.0000   0.0000
     0.0000   0.0000   0.0000   0.0000   0.0000   0.0000   0.0000   0.0000

          k = 0.1000 0.0577 0.0149 ( 14894 PWs)   bands (ev):

   -66.6889 -40.8878 -40.6789 -40.6467 -20.0228 -18.7499 -11.5531  -8.9331
    -8.4384  -8.4137  -7.6859  -7.0672  -6.0893  -3.2754  -3.2231  -2.9859
    -2.8281  -0.0717   0.0399   1.0876   2.3802   2.5223   3.7730   4.3438
     5.3162   5.6735   5.7725   6.2663   6.9238   7.0198   9.2193   9.4090
     9.9749  10.4482  10.5795  10.6522  11.7648  12.8299  14.3567  15.1340
    15.3554  15.8316  15.9030  16.4662  17.2349  17.4630  17.6382  17.6930
    18.3380  18.3950  18.5261  18.9086  19.3314  19.9785  20.0217  20.1181
    20.1336  20.7732  21.2761  21.3515  21.4499  21.9231  21.9466  22.2828
    22.8423  22.9159  23.1432  23.2072  23.5799  23.8923  24.0241  24.1917
    24.2097  24.5190  24.5376  24.7126  25.2433  25.5515  25.7849  25.8895
    25.9850  26.3222  26.6106  27.1689  27.4467  27.5961  27.7139  27.8583
    28.2220  28.6944  28.9817  29.1632  29.3046  29.5271  29.5439  29.6734
    30.0926  30.3491  30.8910  31.1374  31.2974  31.5698  31.5802  31.8818
    32.3313  32.7311  32.9908  33.0997  33.4005  33.7253  34.0299  34.0729
    34.6274  34.7867  35.0751  35.1528  35.3586  35.3614  36.2459  36.5618
    36.8261  36.8757  37.4572  37.5127  37.6532  38.2426  38.3676  38.5274
    38.6108  39.0725  39.3236  39.6894  40.2828  40.3409  40.6484  40.6727
    41.0209  41.6643  41.6862  42.0425  42.3717  42.4175  42.8451  43.0503
    43.2546  43.7552  43.8337  44.1359  44.3030  44.3903  45.0137  45.3862
    45.4106  45.7461  45.7876  46.1707  46.7405  46.9725  47.1295  47.5165
    48.0828  48.2193  48.4372  48.8315  49.1425  49.4949  50.0190  50.1548
    50.1783  50.7732  50.9733  51.3824  51.5157  51.9864  52.0273  52.2561
    52.8997  53.0831  53.5293  53.5654  53.7603  54.2717  54.2757  54.4574
    54.7611  55.0827  55.3650  55.5048  55.5583  55.6126  55.7832  56.0907
    56.4363  56.4858  56.7103  57.0417  57.0757  57.1683  57.7846  57.8076

     occupation numbers 
     1.0000   1.0000   1.0000   1.0000   1.0000   1.0000   1.0000   1.0000
     1.0000   1.0000   1.0000   1.0000   1.0000   0.0000   0.0000   0.0000
     0.0000   0.0000   0.0000   0.0000   0.0000   0.0000   0.0000   0.0000
     0.0000   0.0000   0.0000   0.0000   0.0000   0.0000   0.0000   0.0000
     0.0000   0.0000   0.0000   0.0000   0.0000   0.0000   0.0000   0.0000
     0.0000   0.0000   0.0000   0.0000   0.0000   0.0000   0.0000   0.0000
     0.0000   0.0000   0.0000   0.0000   0.0000   0.0000   0.0000   0.0000
     0.0000   0.0000   0.0000   0.0000   0.0000   0.0000   0.0000   0.0000
     0.0000   0.0000   0.0000   0.0000   0.0000   0.0000   0.0000   0.0000
     0.0000   0.0000   0.0000   0.0000   0.0000   0.0000   0.0000   0.0000
     0.0000   0.0000   0.0000   0.0000   0.0000   0.0000   0.0000   0.0000
     0.0000   0.0000   0.0000   0.0000   0.0000   0.0000   0.0000   0.0000
     0.0000   0.0000   0.0000   0.0000   0.0000   0.0000   0.0000   0.0000
     0.0000   0.0000   0.0000   0.0000   0.0000   0.0000   0.0000   0.0000
     0.0000   0.0000   0.0000   0.0000   0.0000   0.0000   0.0000   0.0000
     0.0000   0.0000   0.0000   0.0000   0.0000   0.0000   0.0000   0.0000
     0.0000   0.0000   0.0000   0.0000   0.0000   0.0000   0.0000   0.0000
     0.0000   0.0000   0.0000   0.0000   0.0000   0.0000   0.0000   0.0000
     0.0000   0.0000   0.0000   0.0000   0.0000   0.0000   0.0000   0.0000
     0.0000   0.0000   0.0000   0.0000   0.0000   0.0000   0.0000   0.0000
     0.0000   0.0000   0.0000   0.0000   0.0000   0.0000   0.0000   0.0000
     0.0000   0.0000   0.0000   0.0000   0.0000   0.0000   0.0000   0.0000
     0.0000   0.0000   0.0000   0.0000   0.0000   0.0000   0.0000   0.0000
     0.0000   0.0000   0.0000   0.0000   0.0000   0.0000   0.0000   0.0000
     0.0000   0.0000   0.0000   0.0000   0.0000   0.0000   0.0000   0.0000

          k = 0.0000 0.0000 0.0000 ( 14903 PWs)   bands (ev):

   -66.6931 -40.8960 -40.6372 -40.6372 -20.1785 -18.8130 -11.7262  -8.6012
    -8.6012  -7.7928  -7.4461  -7.4461  -6.0182  -3.0914  -3.0914  -2.8120
    -2.8120  -0.3417  -0.1572   0.4374   2.1827   2.3414   3.1230   4.8343
     4.8343   5.3418   5.9939   6.8631   6.8631   7.1576   9.4461  10.1009
    10.1791  10.1791  10.4918  10.4918  10.6170  12.3251  13.9506  14.1999
    15.2408  16.2506  17.2134  17.2134  18.8366  18.8366  18.8767  19.1604
    19.5361  19.5361  19.5850  19.6821  19.6940  19.6940  20.2280  20.2583
    20.5356  20.5356  21.4636  21.4636  21.6759  21.8699  21.8784  21.8784
    22.1981  22.1981  22.2237  22.6383  22.6383  22.8354  23.6854  24.1632
    24.3731  24.3731  24.3810  24.3810  24.6869  25.1108  25.4775  25.4775
    25.6151  25.6151  25.7170  26.6606  27.2638  27.2638  27.7868  27.7868
    27.8465  28.6195  28.7091  28.9404  28.9404  29.5850  29.5850  30.0393
    30.0730  30.8210  30.8210  31.0525  31.3974  31.3974  31.5241  31.5241
    31.6615  32.2398  33.1886  33.2758  33.7972  33.7972  33.8204  33.8204
    34.5503  34.6343  35.4804  35.4804  35.5205  35.5205  36.1174  36.6664
    36.6664  36.9714  37.3489  37.3573  37.3573  37.7747  38.1954  38.6011
    38.6011  38.7221  38.7221  38.8992  39.7582  39.7582  40.6116  40.7905
    40.7905  41.4910  41.4910  41.6279  41.7090  41.8049  41.8049  42.1218
    42.5890  42.6958  42.6959  44.7374  44.7430  44.8315  44.8315  45.4771
    45.6224  45.6224  46.3249  46.3249  46.6046  46.7978  47.2926  47.3157
    47.3157  48.4458  48.6842  49.0413  49.0413  50.0748  50.0748  50.7540
    50.7540  50.8717  51.5561  52.0586  52.0586  52.1718  52.4121  52.4121
    52.8559  52.8559  53.2026  53.8633  53.8633  54.1272  54.1293  54.8972
    55.2348  55.5365  55.6925  55.6925  56.7881  56.7881  57.5283  57.5611
    57.5611  57.9275  57.9275  58.6763  58.6906  58.9473  58.9497  58.9555

     occupation numbers 
     1.0000   1.0000   1.0000   1.0000   1.0000   1.0000   1.0000   1.0000
     1.0000   1.0000   1.0000   1.0000   1.0000   0.0000   0.0000   0.0000
     0.0000   0.0000   0.0000   0.0000   0.0000   0.0000   0.0000   0.0000
     0.0000   0.0000   0.0000   0.0000   0.0000   0.0000   0.0000   0.0000
     0.0000   0.0000   0.0000   0.0000   0.0000   0.0000   0.0000   0.0000
     0.0000   0.0000   0.0000   0.0000   0.0000   0.0000   0.0000   0.0000
     0.0000   0.0000   0.0000   0.0000   0.0000   0.0000   0.0000   0.0000
     0.0000   0.0000   0.0000   0.0000   0.0000   0.0000   0.0000   0.0000
     0.0000   0.0000   0.0000   0.0000   0.0000   0.0000   0.0000   0.0000
     0.0000   0.0000   0.0000   0.0000   0.0000   0.0000   0.0000   0.0000
     0.0000   0.0000   0.0000   0.0000   0.0000   0.0000   0.0000   0.0000
     0.0000   0.0000   0.0000   0.0000   0.0000   0.0000   0.0000   0.0000
     0.0000   0.0000   0.0000   0.0000   0.0000   0.0000   0.0000   0.0000
     0.0000   0.0000   0.0000   0.0000   0.0000   0.0000   0.0000   0.0000
     0.0000   0.0000   0.0000   0.0000   0.0000   0.0000   0.0000   0.0000
     0.0000   0.0000   0.0000   0.0000   0.0000   0.0000   0.0000   0.0000
     0.0000   0.0000   0.0000   0.0000   0.0000   0.0000   0.0000   0.0000
     0.0000   0.0000   0.0000   0.0000   0.0000   0.0000   0.0000   0.0000
     0.0000   0.0000   0.0000   0.0000   0.0000   0.0000   0.0000   0.0000
     0.0000   0.0000   0.0000   0.0000   0.0000   0.0000   0.0000   0.0000
     0.0000   0.0000   0.0000   0.0000   0.0000   0.0000   0.0000   0.0000
     0.0000   0.0000   0.0000   0.0000   0.0000   0.0000   0.0000   0.0000
     0.0000   0.0000   0.0000   0.0000   0.0000   0.0000   0.0000   0.0000
     0.0000   0.0000   0.0000   0.0000   0.0000   0.0000   0.0000   0.0000
     0.0000   0.0000   0.0000   0.0000   0.0000   0.0000   0.0000   0.0000

          k =-0.1000-0.0577-0.0149 ( 14894 PWs)   bands (ev):

   -66.6889 -40.8878 -40.6789 -40.6467 -20.0228 -18.7499 -11.5531  -8.9331
    -8.4384  -8.4137  -7.6859  -7.0672  -6.0893  -3.2754  -3.2231  -2.9859
    -2.8281  -0.0717   0.0399   1.0876   2.3802   2.5223   3.7730   4.3438
     5.3162   5.6735   5.7725   6.2663   6.9238   7.0198   9.2193   9.4090
     9.9749  10.4482  10.5795  10.6522  11.7648  12.8299  14.3567  15.1340
    15.3554  15.8316  15.9030  16.4662  17.2349  17.4630  17.6382  17.6930
    18.3380  18.3950  18.5261  18.9086  19.3314  19.9785  20.0217  20.1181
    20.1336  20.7732  21.2761  21.3515  21.4499  21.9231  21.9466  22.2828
    22.8423  22.9159  23.1432  23.2072  23.5799  23.8923  24.0241  24.1917
    24.2097  24.5190  24.5376  24.7126  25.2433  25.5515  25.7849  25.8895
    25.9850  26.3222  26.6106  27.1689  27.4467  27.5961  27.7139  27.8583
    28.2220  28.6944  28.9817  29.1632  29.3046  29.5271  29.5439  29.6734
    30.0926  30.3491  30.8910  31.1374  31.2974  31.5698  31.5802  31.8818
    32.3313  32.7311  32.9908  33.0997  33.4005  33.7253  34.0299  34.0729
    34.6274  34.7867  35.0751  35.1528  35.3586  35.3614  36.2459  36.5618
    36.8261  36.8757  37.4572  37.5127  37.6532  38.2426  38.3676  38.5274
    38.6108  39.0725  39.3236  39.6894  40.2828  40.3409  40.6484  40.6727
    41.0209  41.6643  41.6862  42.0425  42.3717  42.4175  42.8451  43.0503
    43.2546  43.7552  43.8337  44.1359  44.3030  44.3903  45.0137  45.3862
    45.4106  45.7461  45.7876  46.1707  46.7405  46.9725  47.1295  47.5165
    48.0828  48.2193  48.4372  48.8315  49.1425  49.4949  50.0190  50.1548
    50.1783  50.7732  50.9733  51.3824  51.5157  51.9864  52.0273  52.2561
    52.8997  53.0831  53.5293  53.5654  53.7603  54.2717  54.2757  54.4574
    54.7611  55.0827  55.3650  55.5048  55.5583  55.6126  55.7832  56.0907
    56.4363  56.4858  56.7103  57.0417  57.0757  57.1683  57.7846  57.8076

     occupation numbers 
     1.0000   1.0000   1.0000   1.0000   1.0000   1.0000   1.0000   1.0000
     1.0000   1.0000   1.0000   1.0000   1.0000   0.0000   0.0000   0.0000
     0.0000   0.0000   0.0000   0.0000   0.0000   0.0000   0.0000   0.0000
     0.0000   0.0000   0.0000   0.0000   0.0000   0.0000   0.0000   0.0000
     0.0000   0.0000   0.0000   0.0000   0.0000   0.0000   0.0000   0.0000
     0.0000   0.0000   0.0000   0.0000   0.0000   0.0000   0.0000   0.0000
     0.0000   0.0000   0.0000   0.0000   0.0000   0.0000   0.0000   0.0000
     0.0000   0.0000   0.0000   0.0000   0.0000   0.0000   0.0000   0.0000
     0.0000   0.0000   0.0000   0.0000   0.0000   0.0000   0.0000   0.0000
     0.0000   0.0000   0.0000   0.0000   0.0000   0.0000   0.0000   0.0000
     0.0000   0.0000   0.0000   0.0000   0.0000   0.0000   0.0000   0.0000
     0.0000   0.0000   0.0000   0.0000   0.0000   0.0000   0.0000   0.0000
     0.0000   0.0000   0.0000   0.0000   0.0000   0.0000   0.0000   0.0000
     0.0000   0.0000   0.0000   0.0000   0.0000   0.0000   0.0000   0.0000
     0.0000   0.0000   0.0000   0.0000   0.0000   0.0000   0.0000   0.0000
     0.0000   0.0000   0.0000   0.0000   0.0000   0.0000   0.0000   0.0000
     0.0000   0.0000   0.0000   0.0000   0.0000   0.0000   0.0000   0.0000
     0.0000   0.0000   0.0000   0.0000   0.0000   0.0000   0.0000   0.0000
     0.0000   0.0000   0.0000   0.0000   0.0000   0.0000   0.0000   0.0000
     0.0000   0.0000   0.0000   0.0000   0.0000   0.0000   0.0000   0.0000
     0.0000   0.0000   0.0000   0.0000   0.0000   0.0000   0.0000   0.0000
     0.0000   0.0000   0.0000   0.0000   0.0000   0.0000   0.0000   0.0000
     0.0000   0.0000   0.0000   0.0000   0.0000   0.0000   0.0000   0.0000
     0.0000   0.0000   0.0000   0.0000   0.0000   0.0000   0.0000   0.0000
     0.0000   0.0000   0.0000   0.0000   0.0000   0.0000   0.0000   0.0000

          k =-0.2000-0.1155-0.0297 ( 14833 PWs)   bands (ev):

   -66.6779 -40.8662 -40.7867 -40.6712 -19.5908 -18.5751 -11.1750  -9.5951
    -9.2266  -8.2026  -8.0004  -7.1061  -6.4508  -3.7151  -3.3451  -3.2106
    -2.2879   0.4909   0.6026   2.2610   2.9634   3.0819   3.7503   3.8999
     5.6695   5.9472   6.5179   6.5943   6.6107   7.2676   8.2888   8.8535
     9.0763  11.0457  11.1792  11.3033  12.6445  12.7671  13.9998  14.1039
    14.7708  14.9406  15.5273  15.9220  16.0147  16.2699  16.5534  16.7182
    17.2246  17.7297  17.8119  18.1326  18.1564  18.7674  18.9032  19.2152
    19.4499  19.5993  19.9220  21.1549  21.3838  21.5457  21.8450  22.1619
    22.9535  23.2165  23.7540  23.7733  24.1676  24.1769  24.4566  24.8121
    25.0456  25.2141  25.2723  25.4832  25.9325  26.1405  26.3065  26.5490
    27.0750  27.2544  27.4539  27.5516  27.7604  27.8678  28.3608  28.4983
    28.7410  28.8156  29.2271  29.3133  29.4476  29.7550  29.9903  30.3658
    30.6090  31.0270  31.2396  31.4159  31.6147  31.8609  32.0858  32.4237
    32.7698  33.0280  33.3796  33.5029  33.6455  33.8981  34.4100  34.8586
    34.9592  35.1953  35.4276  35.5976  36.1765  36.5190  36.5412  37.0466
    37.1451  37.6278  37.8085  37.9013  38.1982  38.5479  38.7089  39.2253
    39.6069  39.8945  40.1413  40.5238  40.9099  41.0790  41.1299  41.3511
    41.4921  41.8984  41.9302  42.4586  42.7116  42.8801  42.9507  43.1716
    43.5674  43.7920  44.2127  44.7690  44.8555  44.9057  45.3956  45.3984
    45.7223  45.9435  46.0406  46.3617  46.8913  47.0062  47.3409  47.7517
    48.0465  48.4594  48.5695  48.5795  49.0501  49.2003  49.2942  49.4642
    49.5634  49.9263  50.2765  50.3281  50.6611  50.8283  51.1498  51.2084
    51.6050  51.7185  51.7634  51.9457  52.1217  52.3625  52.5228  52.7467
    53.2185  53.6324  54.0182  54.3678  54.4647  54.4665  54.8199  54.9815
    55.4831  55.7792  55.8271  55.9596  56.1432  56.4396  56.5057  56.8800

     occupation numbers 
     1.0000   1.0000   1.0000   1.0000   1.0000   1.0000   1.0000   1.0000
     1.0000   1.0000   1.0000   1.0000   1.0000   0.0000   0.0000   0.0000
     0.0000   0.0000   0.0000   0.0000   0.0000   0.0000   0.0000   0.0000
     0.0000   0.0000   0.0000   0.0000   0.0000   0.0000   0.0000   0.0000
     0.0000   0.0000   0.0000   0.0000   0.0000   0.0000   0.0000   0.0000
     0.0000   0.0000   0.0000   0.0000   0.0000   0.0000   0.0000   0.0000
     0.0000   0.0000   0.0000   0.0000   0.0000   0.0000   0.0000   0.0000
     0.0000   0.0000   0.0000   0.0000   0.0000   0.0000   0.0000   0.0000
     0.0000   0.0000   0.0000   0.0000   0.0000   0.0000   0.0000   0.0000
     0.0000   0.0000   0.0000   0.0000   0.0000   0.0000   0.0000   0.0000
     0.0000   0.0000   0.0000   0.0000   0.0000   0.0000   0.0000   0.0000
     0.0000   0.0000   0.0000   0.0000   0.0000   0.0000   0.0000   0.0000
     0.0000   0.0000   0.0000   0.0000   0.0000   0.0000   0.0000   0.0000
     0.0000   0.0000   0.0000   0.0000   0.0000   0.0000   0.0000   0.0000
     0.0000   0.0000   0.0000   0.0000   0.0000   0.0000   0.0000   0.0000
     0.0000   0.0000   0.0000   0.0000   0.0000   0.0000   0.0000   0.0000
     0.0000   0.0000   0.0000   0.0000   0.0000   0.0000   0.0000   0.0000
     0.0000   0.0000   0.0000   0.0000   0.0000   0.0000   0.0000   0.0000
     0.0000   0.0000   0.0000   0.0000   0.0000   0.0000   0.0000   0.0000
     0.0000   0.0000   0.0000   0.0000   0.0000   0.0000   0.0000   0.0000
     0.0000   0.0000   0.0000   0.0000   0.0000   0.0000   0.0000   0.0000
     0.0000   0.0000   0.0000   0.0000   0.0000   0.0000   0.0000   0.0000
     0.0000   0.0000   0.0000   0.0000   0.0000   0.0000   0.0000   0.0000
     0.0000   0.0000   0.0000   0.0000   0.0000   0.0000   0.0000   0.0000
     0.0000   0.0000   0.0000   0.0000   0.0000   0.0000   0.0000   0.0000

          k =-0.3000-0.1732-0.0446 ( 14830 PWs)   bands (ev):

   -66.6643 -40.9175 -40.8393 -40.7014 -18.9904 -18.3360 -11.1972 -10.0232
    -9.8963  -8.7093  -7.4869  -7.4469  -6.9396  -3.6711  -3.6102  -2.6701
    -1.8277   1.2028   1.3846   2.2857   2.6422   3.1692   4.0140   4.2907
     5.7455   6.2821   6.7423   6.8521   7.4908   8.0703   8.8738   9.0127
     9.0166  10.0361  10.0398  11.6046  12.0122  12.0304  12.5181  12.5677
    14.2953  14.7219  14.9622  15.5303  15.7905  15.8896  15.9784  16.2509
    16.9196  17.0136  17.2417  17.9118  18.0949  18.1555  18.6475  19.0703
    19.2324  19.5856  19.6982  20.3942  20.7754  21.2180  21.5395  21.7621
    21.9118  22.7302  22.9285  23.0940  23.4567  23.6848  24.0175  24.4947
    24.8763  25.2769  25.3548  25.7228  25.9370  26.4925  26.9710  27.3536
    27.3791  27.6465  27.8758  28.0440  28.0827  28.4769  28.7640  28.9455
    29.4561  29.8078  30.2036  30.4136  30.6129  30.7872  31.3092  31.4520
    31.7530  31.7800  32.0534  32.2480  32.5739  32.8528  33.2351  33.4634
    33.5230  34.1072  34.4844  34.5414  34.6204  35.1848  35.2582  35.3642
    35.6081  36.2487  36.3771  36.4735  36.6242  36.7540  37.2646  37.8271
    37.9830  38.1763  38.2890  38.6038  38.7118  39.1262  39.2063  39.6413
    40.0230  40.1674  40.3937  40.6308  41.3595  41.4506  41.8275  41.8477
    42.4650  42.5486  42.5510  42.8248  42.9526  43.0565  43.2646  43.6180
    43.8271  44.0558  44.1760  44.3827  44.6149  44.7283  44.8008  45.1539
    45.3224  45.7875  45.8049  46.0072  46.3754  46.7254  46.7458  47.2317
    47.2863  47.5074  47.6532  47.8287  48.0677  48.2262  48.4682  48.8607
    49.0602  49.2156  49.4154  49.8377  50.1257  50.3692  50.3902  50.5604
    50.5705  50.9526  51.2397  51.5000  51.5372  52.2199  52.4355  52.4925
    52.6889  53.1098  53.3662  53.3719  53.8063  54.2555  54.4333  54.7058
    55.0262  55.0488  55.3596  55.5451  55.5509  55.8676  56.1082  56.4640

     occupation numbers 
     1.0000   1.0000   1.0000   1.0000   1.0000   1.0000   1.0000   1.0000
     1.0000   1.0000   1.0000   1.0000   1.0000   0.0000   0.0000   0.0000
     0.0000   0.0000   0.0000   0.0000   0.0000   0.0000   0.0000   0.0000
     0.0000   0.0000   0.0000   0.0000   0.0000   0.0000   0.0000   0.0000
     0.0000   0.0000   0.0000   0.0000   0.0000   0.0000   0.0000   0.0000
     0.0000   0.0000   0.0000   0.0000   0.0000   0.0000   0.0000   0.0000
     0.0000   0.0000   0.0000   0.0000   0.0000   0.0000   0.0000   0.0000
     0.0000   0.0000   0.0000   0.0000   0.0000   0.0000   0.0000   0.0000
     0.0000   0.0000   0.0000   0.0000   0.0000   0.0000   0.0000   0.0000
     0.0000   0.0000   0.0000   0.0000   0.0000   0.0000   0.0000   0.0000
     0.0000   0.0000   0.0000   0.0000   0.0000   0.0000   0.0000   0.0000
     0.0000   0.0000   0.0000   0.0000   0.0000   0.0000   0.0000   0.0000
     0.0000   0.0000   0.0000   0.0000   0.0000   0.0000   0.0000   0.0000
     0.0000   0.0000   0.0000   0.0000   0.0000   0.0000   0.0000   0.0000
     0.0000   0.0000   0.0000   0.0000   0.0000   0.0000   0.0000   0.0000
     0.0000   0.0000   0.0000   0.0000   0.0000   0.0000   0.0000   0.0000
     0.0000   0.0000   0.0000   0.0000   0.0000   0.0000   0.0000   0.0000
     0.0000   0.0000   0.0000   0.0000   0.0000   0.0000   0.0000   0.0000
     0.0000   0.0000   0.0000   0.0000   0.0000   0.0000   0.0000   0.0000
     0.0000   0.0000   0.0000   0.0000   0.0000   0.0000   0.0000   0.0000
     0.0000   0.0000   0.0000   0.0000   0.0000   0.0000   0.0000   0.0000
     0.0000   0.0000   0.0000   0.0000   0.0000   0.0000   0.0000   0.0000
     0.0000   0.0000   0.0000   0.0000   0.0000   0.0000   0.0000   0.0000
     0.0000   0.0000   0.0000   0.0000   0.0000   0.0000   0.0000   0.0000
     0.0000   0.0000   0.0000   0.0000   0.0000   0.0000   0.0000   0.0000

          k =-0.4000-0.2309-0.0595 ( 14762 PWs)   bands (ev):

   -66.6532 -41.0214 -40.8176 -40.7257 -18.4223 -18.1182 -11.6667 -10.6485
   -10.0038  -9.0546  -7.7740  -7.0178  -6.8568  -3.6414  -3.3214  -2.1783
    -1.5766   0.9357   1.7433   1.9640   2.8401   3.5903   4.3609   4.6922
     5.7387   5.8053   6.2552   7.2543   7.5129   8.6566   8.7902   9.1139
     9.7055  10.1945  10.5100  10.7590  11.0391  11.9448  12.7782  12.7847
    13.5910  13.9298  14.1820  14.5575  14.8345  15.3518  16.0768  16.3541
    16.3743  16.6630  16.7704  17.7723  17.9612  18.3442  18.5852  18.6895
    18.8769  19.7283  19.8671  19.9491  20.1917  20.2098  21.1221  21.5157
    21.7460  22.2141  22.3083  22.4416  22.7654  23.3305  23.7099  24.2933
    24.9604  25.5391  25.5836  25.5873  26.0044  26.7537  27.0043  27.2195
    27.3503  27.6314  27.7034  28.4624  29.2894  29.7178  29.7689  30.1598
    30.3352  30.7080  31.1792  31.2455  31.4474  31.4762  31.8959  32.1351
    32.4401  32.5343  32.8294  33.0471  33.1769  33.5494  33.6130  34.0563
    34.1691  34.7244  34.9190  35.2601  35.3938  35.6813  36.0281  36.4207
    36.4825  36.7515  37.0548  37.3055  37.4988  38.0429  38.2037  38.3110
    38.4375  38.5817  38.7818  39.3246  39.3597  39.7083  39.7363  39.9097
    40.0233  40.6538  40.7445  40.8298  40.8789  41.2706  41.5298  41.7881
    41.9236  41.9480  42.2623  42.5385  42.5417  42.8684  42.9252  43.3313
    43.5084  43.7887  43.9467  43.9812  44.2260  44.6678  44.9410  45.1149
    45.2440  45.5985  45.8478  46.2922  46.3020  46.6232  46.8712  46.9485
    47.3399  47.3593  47.5773  47.8773  48.2780  48.3261  48.5601  48.6061
    49.1853  49.4047  49.7885  49.8658  49.8834  50.3416  50.3922  50.5162
    50.8556  50.9272  50.9722  51.2910  51.3307  51.6742  51.9348  52.3694
    52.5493  52.6825  52.9071  52.9414  53.2276  53.5159  53.5937  54.0808
    54.3079  54.3184  54.5945  54.9353  55.0339  55.1392  55.3754  55.7273

     occupation numbers 
     1.0000   1.0000   1.0000   1.0000   1.0000   1.0000   1.0000   1.0000
     1.0000   1.0000   1.0000   1.0000   1.0000   0.0000   0.0000   0.0000
     0.0000   0.0000   0.0000   0.0000   0.0000   0.0000   0.0000   0.0000
     0.0000   0.0000   0.0000   0.0000   0.0000   0.0000   0.0000   0.0000
     0.0000   0.0000   0.0000   0.0000   0.0000   0.0000   0.0000   0.0000
     0.0000   0.0000   0.0000   0.0000   0.0000   0.0000   0.0000   0.0000
     0.0000   0.0000   0.0000   0.0000   0.0000   0.0000   0.0000   0.0000
     0.0000   0.0000   0.0000   0.0000   0.0000   0.0000   0.0000   0.0000
     0.0000   0.0000   0.0000   0.0000   0.0000   0.0000   0.0000   0.0000
     0.0000   0.0000   0.0000   0.0000   0.0000   0.0000   0.0000   0.0000
     0.0000   0.0000   0.0000   0.0000   0.0000   0.0000   0.0000   0.0000
     0.0000   0.0000   0.0000   0.0000   0.0000   0.0000   0.0000   0.0000
     0.0000   0.0000   0.0000   0.0000   0.0000   0.0000   0.0000   0.0000
     0.0000   0.0000   0.0000   0.0000   0.0000   0.0000   0.0000   0.0000
     0.0000   0.0000   0.0000   0.0000   0.0000   0.0000   0.0000   0.0000
     0.0000   0.0000   0.0000   0.0000   0.0000   0.0000   0.0000   0.0000
     0.0000   0.0000   0.0000   0.0000   0.0000   0.0000   0.0000   0.0000
     0.0000   0.0000   0.0000   0.0000   0.0000   0.0000   0.0000   0.0000
     0.0000   0.0000   0.0000   0.0000   0.0000   0.0000   0.0000   0.0000
     0.0000   0.0000   0.0000   0.0000   0.0000   0.0000   0.0000   0.0000
     0.0000   0.0000   0.0000   0.0000   0.0000   0.0000   0.0000   0.0000
     0.0000   0.0000   0.0000   0.0000   0.0000   0.0000   0.0000   0.0000
     0.0000   0.0000   0.0000   0.0000   0.0000   0.0000   0.0000   0.0000
     0.0000   0.0000   0.0000   0.0000   0.0000   0.0000   0.0000   0.0000
     0.0000   0.0000   0.0000   0.0000   0.0000   0.0000   0.0000   0.0000

          k =-0.5000-0.2887-0.0743 ( 14744 PWs)   bands (ev):

   -66.6490 -41.0607 -40.8092 -40.7349 -18.1758 -18.0277 -11.9001 -10.8904
   -10.1232  -9.1755  -7.8662  -6.8690  -6.6203  -3.5904  -3.0775  -2.0251
    -1.5035   0.1960   1.8572   2.3340   3.1010   3.7794   4.5699   5.1579
     5.3297   5.6768   5.8121   7.0081   7.3954   7.9113   8.4178   9.6496
    10.1670  10.2358  10.9112  11.3378  11.6921  12.0760  12.4255  13.0189
    13.5217  13.6512  14.0279  14.1098  14.6772  15.1870  15.8399  16.2070
    16.2204  16.6408  16.8170  17.1313  17.6221  17.6564  18.3177  18.5706
    18.7979  18.8044  19.2829  19.3523  20.3321  20.8714  20.9715  21.2727
    21.6522  22.1412  22.1732  22.6143  23.1672  23.3244  24.0993  24.6315
    25.2846  25.4932  25.6024  25.9397  26.4785  26.6007  26.8078  26.8873
    27.3252  27.8195  27.8692  28.0722  29.1930  29.7481  30.1279  30.1608
    30.4444  30.6783  30.9725  31.1932  32.1980  32.2355  32.4814  32.7829
    32.9510  32.9583  33.3167  33.5343  33.7054  34.0349  34.9528  35.0292
    35.0551  35.1162  35.2883  35.3418  35.8120  35.8301  36.2076  36.2086
    36.4603  36.5041  36.7557  36.8901  37.3885  37.5687  37.8476  37.9504
    38.0450  38.4484  38.5575  38.6897  39.0204  39.2849  39.8098  40.1246
    40.1734  40.4334  40.6613  41.0387  41.2096  41.2655  41.3843  41.8438
    41.9808  42.2750  42.3729  42.5284  43.1091  43.4462  43.6419  43.6749
    43.9863  44.0115  44.4493  44.5154  44.9408  45.1905  45.4397  45.6880
    45.8780  45.9976  46.0832  46.1869  46.3515  46.4287  46.4825  46.7235
    47.2317  47.4731  47.5904  47.6355  48.1771  48.4067  48.4551  48.5806
    48.8456  49.1305  49.2331  49.3622  49.5294  49.6689  49.8354  50.2652
    50.7262  50.8301  50.8717  51.1815  51.3244  51.4529  51.8972  52.2450
    52.2679  52.2894  52.7537  52.8415  52.8947  53.1624  53.3123  53.4041
    53.9127  53.9631  54.0418  54.1478  54.2338  54.3302  54.9651  55.8258

     occupation numbers 
     1.0000   1.0000   1.0000   1.0000   1.0000   1.0000   1.0000   1.0000
     1.0000   1.0000   1.0000   1.0000   1.0000   0.0000   0.0000   0.0000
     0.0000   0.0000   0.0000   0.0000   0.0000   0.0000   0.0000   0.0000
     0.0000   0.0000   0.0000   0.0000   0.0000   0.0000   0.0000   0.0000
     0.0000   0.0000   0.0000   0.0000   0.0000   0.0000   0.0000   0.0000
     0.0000   0.0000   0.0000   0.0000   0.0000   0.0000   0.0000   0.0000
     0.0000   0.0000   0.0000   0.0000   0.0000   0.0000   0.0000   0.0000
     0.0000   0.0000   0.0000   0.0000   0.0000   0.0000   0.0000   0.0000
     0.0000   0.0000   0.0000   0.0000   0.0000   0.0000   0.0000   0.0000
     0.0000   0.0000   0.0000   0.0000   0.0000   0.0000   0.0000   0.0000
     0.0000   0.0000   0.0000   0.0000   0.0000   0.0000   0.0000   0.0000
     0.0000   0.0000   0.0000   0.0000   0.0000   0.0000   0.0000   0.0000
     0.0000   0.0000   0.0000   0.0000   0.0000   0.0000   0.0000   0.0000
     0.0000   0.0000   0.0000   0.0000   0.0000   0.0000   0.0000   0.0000
     0.0000   0.0000   0.0000   0.0000   0.0000   0.0000   0.0000   0.0000
     0.0000   0.0000   0.0000   0.0000   0.0000   0.0000   0.0000   0.0000
     0.0000   0.0000   0.0000   0.0000   0.0000   0.0000   0.0000   0.0000
     0.0000   0.0000   0.0000   0.0000   0.0000   0.0000   0.0000   0.0000
     0.0000   0.0000   0.0000   0.0000   0.0000   0.0000   0.0000   0.0000
     0.0000   0.0000   0.0000   0.0000   0.0000   0.0000   0.0000   0.0000
     0.0000   0.0000   0.0000   0.0000   0.0000   0.0000   0.0000   0.0000
     0.0000   0.0000   0.0000   0.0000   0.0000   0.0000   0.0000   0.0000
     0.0000   0.0000   0.0000   0.0000   0.0000   0.0000   0.0000   0.0000
     0.0000   0.0000   0.0000   0.0000   0.0000   0.0000   0.0000   0.0000
     0.0000   0.0000   0.0000   0.0000   0.0000   0.0000   0.0000   0.0000

          k =-0.4000-0.2309-0.0669 ( 14772 PWs)   bands (ev):

   -66.6532 -41.0214 -40.8176 -40.7257 -18.4223 -18.1182 -11.6667 -10.6485
   -10.0038  -9.0546  -7.7740  -7.0178  -6.8568  -3.6414  -3.3214  -2.1783
    -1.5766   0.9357   1.7433   1.9640   2.8401   3.5903   4.3608   4.6922
     5.7386   5.8053   6.2553   7.2543   7.5128   8.6566   8.7901   9.1139
     9.7058  10.1943  10.5100  10.7591  11.0390  11.9448  12.7788  12.7846
    13.5895  13.9307  14.1820  14.5566  14.8355  15.3518  16.0755  16.3541
    16.3830  16.6678  16.7565  17.7722  17.9639  18.3396  18.5852  18.6960
    18.8633  19.7761  19.8459  19.9492  20.1916  20.2020  21.1049  21.5154
    21.7795  22.1906  22.3087  22.4110  22.7693  23.3520  23.7064  24.3385
    24.9257  25.5375  25.5877  25.6387  25.9231  26.7886  26.9761  27.2247
    27.3523  27.6160  27.6996  28.4982  29.3621  29.6878  29.7220  30.1575
    30.3178  30.7058  31.1686  31.2836  31.4202  31.4995  31.9367  32.1077
    32.4655  32.4965  32.9028  33.0301  33.0917  33.5505  33.6075  34.0395
    34.1484  34.7763  34.9272  35.2815  35.4114  35.6732  35.9734  36.5062
    36.5445  36.6883  37.0912  37.2436  37.4536  38.0806  38.1665  38.3427
    38.4060  38.5951  38.7545  39.3453  39.4404  39.6382  39.6878  39.9319
    39.9888  40.6800  40.7819  40.7990  40.8698  41.3330  41.4978  41.8186
    41.9356  41.9464  42.2157  42.5502  42.5708  42.8622  42.9050  43.3197
    43.5341  43.8016  43.9433  44.0224  44.1936  44.6812  44.9604  45.0913
    45.2542  45.4907  45.8304  46.3257  46.3295  46.5847  46.8732  46.9289
    47.3329  47.3701  47.6314  47.8126  48.3642  48.3900  48.5015  48.5594
    49.2042  49.5254  49.7219  49.9074  49.9176  50.2409  50.4006  50.4813
    50.9034  50.9122  51.0121  51.2771  51.3586  51.6412  51.8437  52.3904
    52.5102  52.6638  52.9013  52.9714  53.1896  53.5726  53.6235  54.1699
    54.2499  54.2582  54.6292  54.9277  54.9944  55.1211  55.4196  55.7281

     occupation numbers 
     1.0000   1.0000   1.0000   1.0000   1.0000   1.0000   1.0000   1.0000
     1.0000   1.0000   1.0000   1.0000   1.0000   0.0000   0.0000   0.0000
     0.0000   0.0000   0.0000   0.0000   0.0000   0.0000   0.0000   0.0000
     0.0000   0.0000   0.0000   0.0000   0.0000   0.0000   0.0000   0.0000
     0.0000   0.0000   0.0000   0.0000   0.0000   0.0000   0.0000   0.0000
     0.0000   0.0000   0.0000   0.0000   0.0000   0.0000   0.0000   0.0000
     0.0000   0.0000   0.0000   0.0000   0.0000   0.0000   0.0000   0.0000
     0.0000   0.0000   0.0000   0.0000   0.0000   0.0000   0.0000   0.0000
     0.0000   0.0000   0.0000   0.0000   0.0000   0.0000   0.0000   0.0000
     0.0000   0.0000   0.0000   0.0000   0.0000   0.0000   0.0000   0.0000
     0.0000   0.0000   0.0000   0.0000   0.0000   0.0000   0.0000   0.0000
     0.0000   0.0000   0.0000   0.0000   0.0000   0.0000   0.0000   0.0000
     0.0000   0.0000   0.0000   0.0000   0.0000   0.0000   0.0000   0.0000
     0.0000   0.0000   0.0000   0.0000   0.0000   0.0000   0.0000   0.0000
     0.0000   0.0000   0.0000   0.0000   0.0000   0.0000   0.0000   0.0000
     0.0000   0.0000   0.0000   0.0000   0.0000   0.0000   0.0000   0.0000
     0.0000   0.0000   0.0000   0.0000   0.0000   0.0000   0.0000   0.0000
     0.0000   0.0000   0.0000   0.0000   0.0000   0.0000   0.0000   0.0000
     0.0000   0.0000   0.0000   0.0000   0.0000   0.0000   0.0000   0.0000
     0.0000   0.0000   0.0000   0.0000   0.0000   0.0000   0.0000   0.0000
     0.0000   0.0000   0.0000   0.0000   0.0000   0.0000   0.0000   0.0000
     0.0000   0.0000   0.0000   0.0000   0.0000   0.0000   0.0000   0.0000
     0.0000   0.0000   0.0000   0.0000   0.0000   0.0000   0.0000   0.0000
     0.0000   0.0000   0.0000   0.0000   0.0000   0.0000   0.0000   0.0000
     0.0000   0.0000   0.0000   0.0000   0.0000   0.0000   0.0000   0.0000

          k =-0.3000-0.1732-0.0595 ( 14828 PWs)   bands (ev):

   -66.6643 -40.9175 -40.8393 -40.7014 -18.9904 -18.3360 -11.1972 -10.0232
    -9.8963  -8.7093  -7.4869  -7.4469  -6.9396  -3.6711  -3.6102  -2.6701
    -1.8277   1.2028   1.3846   2.2857   2.6422   3.1693   4.0139   4.2908
     5.7454   6.2823   6.7426   6.8521   7.4902   8.0703   8.8738   9.0138
     9.0162  10.0362  10.0396  11.6046  12.0133  12.0303  12.5210  12.5606
    14.2949  14.7353  14.9622  15.5670  15.7905  15.8472  15.9797  16.2203
    16.9321  17.0136  17.2097  17.9448  18.0999  18.1553  18.7935  19.0705
    19.1174  19.5932  19.6756  20.4195  20.6536  21.2175  21.5399  21.8034
    21.8829  22.9293  23.0088  23.0932  23.4221  23.6885  23.8111  24.5637
    24.8786  25.2210  25.2748  25.7367  25.8559  26.6710  26.9618  27.3823
    27.3856  27.6128  27.8571  28.0966  28.1817  28.5008  28.7553  28.8040
    29.4587  29.7001  30.3259  30.3800  30.6870  30.7642  31.4117  31.4287
    31.5474  31.6653  32.1705  32.2712  32.6778  32.8183  33.2216  33.3800
    33.4898  34.2311  34.4653  34.6238  34.6415  35.0506  35.2426  35.4505
    35.8160  36.1237  36.3102  36.4444  36.6704  36.7165  37.0585  37.9563
    38.1418  38.1949  38.3292  38.6517  38.6807  38.9792  39.0862  39.5737
    40.0682  40.1203  40.3727  40.6508  41.5289  41.5299  41.7482  41.8213
    42.4681  42.6414  42.6541  42.9299  43.0218  43.0555  43.1851  43.4300
    43.8339  44.0038  44.2625  44.3601  44.5860  44.5994  44.7396  45.2312
    45.4289  45.6539  45.8616  45.9807  46.2841  46.6286  46.8411  47.2225
    47.2585  47.4393  47.6639  47.7160  48.1230  48.3210  48.6672  48.8891
    49.0888  49.3254  49.3320  49.8273  49.9441  50.4390  50.5106  50.5191
    50.7656  51.0603  51.1619  51.4301  51.8197  52.0762  52.2834  52.3396
    52.6687  52.8938  53.1702  53.5599  53.7705  54.2402  54.3367  54.7044
    55.0191  55.0264  55.4152  55.5384  55.7056  55.8201  56.3218  56.4805

     occupation numbers 
     1.0000   1.0000   1.0000   1.0000   1.0000   1.0000   1.0000   1.0000
     1.0000   1.0000   1.0000   1.0000   1.0000   0.0000   0.0000   0.0000
     0.0000   0.0000   0.0000   0.0000   0.0000   0.0000   0.0000   0.0000
     0.0000   0.0000   0.0000   0.0000   0.0000   0.0000   0.0000   0.0000
     0.0000   0.0000   0.0000   0.0000   0.0000   0.0000   0.0000   0.0000
     0.0000   0.0000   0.0000   0.0000   0.0000   0.0000   0.0000   0.0000
     0.0000   0.0000   0.0000   0.0000   0.0000   0.0000   0.0000   0.0000
     0.0000   0.0000   0.0000   0.0000   0.0000   0.0000   0.0000   0.0000
     0.0000   0.0000   0.0000   0.0000   0.0000   0.0000   0.0000   0.0000
     0.0000   0.0000   0.0000   0.0000   0.0000   0.0000   0.0000   0.0000
     0.0000   0.0000   0.0000   0.0000   0.0000   0.0000   0.0000   0.0000
     0.0000   0.0000   0.0000   0.0000   0.0000   0.0000   0.0000   0.0000
     0.0000   0.0000   0.0000   0.0000   0.0000   0.0000   0.0000   0.0000
     0.0000   0.0000   0.0000   0.0000   0.0000   0.0000   0.0000   0.0000
     0.0000   0.0000   0.0000   0.0000   0.0000   0.0000   0.0000   0.0000
     0.0000   0.0000   0.0000   0.0000   0.0000   0.0000   0.0000   0.0000
     0.0000   0.0000   0.0000   0.0000   0.0000   0.0000   0.0000   0.0000
     0.0000   0.0000   0.0000   0.0000   0.0000   0.0000   0.0000   0.0000
     0.0000   0.0000   0.0000   0.0000   0.0000   0.0000   0.0000   0.0000
     0.0000   0.0000   0.0000   0.0000   0.0000   0.0000   0.0000   0.0000
     0.0000   0.0000   0.0000   0.0000   0.0000   0.0000   0.0000   0.0000
     0.0000   0.0000   0.0000   0.0000   0.0000   0.0000   0.0000   0.0000
     0.0000   0.0000   0.0000   0.0000   0.0000   0.0000   0.0000   0.0000
     0.0000   0.0000   0.0000   0.0000   0.0000   0.0000   0.0000   0.0000
     0.0000   0.0000   0.0000   0.0000   0.0000   0.0000   0.0000   0.0000

          k =-0.2000-0.1155-0.0520 ( 14827 PWs)   bands (ev):

   -66.6779 -40.8662 -40.7867 -40.6712 -19.5908 -18.5751 -11.1750  -9.5951
    -9.2266  -8.2026  -8.0004  -7.1061  -6.4508  -3.7151  -3.3451  -3.2106
    -2.2879   0.4909   0.6026   2.2611   2.9632   3.0821   3.7504   3.8999
     5.6694   5.9480   6.5179   6.5948   6.6092   7.2676   8.2877   8.8535
     9.0797  11.0457  11.1901  11.2836  12.6442  12.7673  14.0541  14.1047
    14.7766  14.9175  15.5325  15.7365  16.0136  16.2699  16.5533  16.8187
    17.3597  17.7278  17.9198  18.1365  18.1564  18.6969  18.9030  19.1803
    19.2153  19.5914  19.8388  21.3720  21.5463  21.6093  21.8442  22.2383
    22.9312  23.0856  23.5216  23.7531  24.0614  24.1791  24.4463  24.8127
    25.1069  25.1794  25.2694  25.7236  25.9544  26.1028  26.3063  26.5515
    27.2432  27.2591  27.4408  27.5602  27.7462  27.8136  28.3403  28.4827
    28.7588  28.8361  29.0939  29.2104  29.5650  29.7737  29.9464  30.3494
    30.5607  31.0202  31.2957  31.3372  31.4895  31.9542  32.2262  32.5306
    32.7269  32.8465  33.3882  33.6071  33.8587  33.9253  34.3634  34.6636
    34.9134  35.4337  35.5384  35.6311  36.0902  36.2921  36.4206  36.9701
    37.1388  37.5234  37.9646  38.0746  38.2591  38.4751  38.5125  38.9859
    39.8147  40.2200  40.3341  40.5705  40.7770  41.0071  41.0931  41.3013
    41.6230  41.8816  42.0647  42.3436  42.6003  42.7824  42.8653  43.3901
    43.5091  44.0281  44.3455  44.5067  44.5150  44.7947  45.0964  45.4192
    45.7073  45.9859  46.2983  46.3477  46.7974  47.2373  47.6294  48.0299
    48.0477  48.3755  48.5419  48.7854  48.9102  49.1678  49.3637  49.4716
    49.5602  49.7442  50.2520  50.4035  50.4161  50.6494  50.9825  51.2722
    51.3835  51.8352  51.8480  51.9568  52.0113  52.5343  52.6239  53.0967
    53.1867  53.7130  53.7466  54.1753  54.4687  54.6339  54.7065  55.0498
    55.4288  55.6057  55.6405  55.9499  56.1325  56.5784  56.7084  56.8127

     occupation numbers 
     1.0000   1.0000   1.0000   1.0000   1.0000   1.0000   1.0000   1.0000
     1.0000   1.0000   1.0000   1.0000   1.0000   0.0000   0.0000   0.0000
     0.0000   0.0000   0.0000   0.0000   0.0000   0.0000   0.0000   0.0000
     0.0000   0.0000   0.0000   0.0000   0.0000   0.0000   0.0000   0.0000
     0.0000   0.0000   0.0000   0.0000   0.0000   0.0000   0.0000   0.0000
     0.0000   0.0000   0.0000   0.0000   0.0000   0.0000   0.0000   0.0000
     0.0000   0.0000   0.0000   0.0000   0.0000   0.0000   0.0000   0.0000
     0.0000   0.0000   0.0000   0.0000   0.0000   0.0000   0.0000   0.0000
     0.0000   0.0000   0.0000   0.0000   0.0000   0.0000   0.0000   0.0000
     0.0000   0.0000   0.0000   0.0000   0.0000   0.0000   0.0000   0.0000
     0.0000   0.0000   0.0000   0.0000   0.0000   0.0000   0.0000   0.0000
     0.0000   0.0000   0.0000   0.0000   0.0000   0.0000   0.0000   0.0000
     0.0000   0.0000   0.0000   0.0000   0.0000   0.0000   0.0000   0.0000
     0.0000   0.0000   0.0000   0.0000   0.0000   0.0000   0.0000   0.0000
     0.0000   0.0000   0.0000   0.0000   0.0000   0.0000   0.0000   0.0000
     0.0000   0.0000   0.0000   0.0000   0.0000   0.0000   0.0000   0.0000
     0.0000   0.0000   0.0000   0.0000   0.0000   0.0000   0.0000   0.0000
     0.0000   0.0000   0.0000   0.0000   0.0000   0.0000   0.0000   0.0000
     0.0000   0.0000   0.0000   0.0000   0.0000   0.0000   0.0000   0.0000
     0.0000   0.0000   0.0000   0.0000   0.0000   0.0000   0.0000   0.0000
     0.0000   0.0000   0.0000   0.0000   0.0000   0.0000   0.0000   0.0000
     0.0000   0.0000   0.0000   0.0000   0.0000   0.0000   0.0000   0.0000
     0.0000   0.0000   0.0000   0.0000   0.0000   0.0000   0.0000   0.0000
     0.0000   0.0000   0.0000   0.0000   0.0000   0.0000   0.0000   0.0000
     0.0000   0.0000   0.0000   0.0000   0.0000   0.0000   0.0000   0.0000

          k =-0.1000-0.0577-0.0446 ( 14901 PWs)   bands (ev):

   -66.6889 -40.8878 -40.6789 -40.6467 -20.0228 -18.7499 -11.5531  -8.9331
    -8.4384  -8.4137  -7.6859  -7.0672  -6.0893  -3.2754  -3.2231  -2.9859
    -2.8281  -0.0716   0.0399   1.0876   2.3804   2.5220   3.7730   4.3438
     5.3162   5.6750   5.7720   6.2643   6.9238   7.0204   9.2182   9.4178
     9.9749  10.4482  10.5828  10.6316  11.7584  12.8775  14.4147  15.0307
    15.1497  15.8279  15.9952  16.6875  17.3975  17.4630  17.6451  17.6930
    18.3134  18.3950  18.5216  18.5599  19.0000  19.9784  20.1183  20.1203
    20.5755  20.8729  21.2996  21.3514  21.4452  21.9149  22.0034  22.2829
    22.7887  22.8431  23.1425  23.2049  23.4186  23.5833  23.9439  24.1909
    24.2111  24.5192  24.5642  24.9840  25.3207  25.5441  25.7886  25.9656
    26.1214  26.3190  26.6413  27.1545  27.4488  27.5916  27.7477  27.8328
    28.2326  28.5498  28.9380  29.0856  29.1765  29.5058  29.5559  29.6862
    30.0239  30.5422  30.9068  31.1130  31.2614  31.5937  31.6309  31.9185
    32.4257  32.6509  33.0256  33.1451  33.2396  33.8059  34.2377  34.2971
    34.4027  34.7051  34.8161  35.2561  35.5518  35.6745  35.9969  36.3417
    36.4533  36.8239  37.4515  37.5479  37.6682  38.2854  38.4605  38.5956
    38.7230  38.9990  39.5416  39.8783  39.9115  40.3301  40.5929  41.0277
    41.3372  41.6800  41.6864  42.0592  42.2742  42.3875  42.5761  42.7508
    43.3450  43.4713  43.8073  44.1140  44.4134  44.6329  44.7772  45.1748
    45.3215  45.6724  46.0740  46.3381  46.7198  47.3106  47.5173  47.6132
    47.9701  48.1608  48.2093  48.7402  49.4531  49.5222  49.8132  49.9904
    50.1645  50.5104  51.0571  51.3962  51.4135  51.6161  52.4166  52.5048
    52.8348  53.1594  53.5105  53.5173  53.8293  53.9657  54.2080  54.4957
    54.6537  55.1624  55.2477  55.4370  55.5719  55.8141  55.8191  56.1426
    56.2888  56.6230  56.8233  57.1290  57.2191  57.5556  57.5908  57.8346

     occupation numbers 
     1.0000   1.0000   1.0000   1.0000   1.0000   1.0000   1.0000   1.0000
     1.0000   1.0000   1.0000   1.0000   1.0000   0.0000   0.0000   0.0000
     0.0000   0.0000   0.0000   0.0000   0.0000   0.0000   0.0000   0.0000
     0.0000   0.0000   0.0000   0.0000   0.0000   0.0000   0.0000   0.0000
     0.0000   0.0000   0.0000   0.0000   0.0000   0.0000   0.0000   0.0000
     0.0000   0.0000   0.0000   0.0000   0.0000   0.0000   0.0000   0.0000
     0.0000   0.0000   0.0000   0.0000   0.0000   0.0000   0.0000   0.0000
     0.0000   0.0000   0.0000   0.0000   0.0000   0.0000   0.0000   0.0000
     0.0000   0.0000   0.0000   0.0000   0.0000   0.0000   0.0000   0.0000
     0.0000   0.0000   0.0000   0.0000   0.0000   0.0000   0.0000   0.0000
     0.0000   0.0000   0.0000   0.0000   0.0000   0.0000   0.0000   0.0000
     0.0000   0.0000   0.0000   0.0000   0.0000   0.0000   0.0000   0.0000
     0.0000   0.0000   0.0000   0.0000   0.0000   0.0000   0.0000   0.0000
     0.0000   0.0000   0.0000   0.0000   0.0000   0.0000   0.0000   0.0000
     0.0000   0.0000   0.0000   0.0000   0.0000   0.0000   0.0000   0.0000
     0.0000   0.0000   0.0000   0.0000   0.0000   0.0000   0.0000   0.0000
     0.0000   0.0000   0.0000   0.0000   0.0000   0.0000   0.0000   0.0000
     0.0000   0.0000   0.0000   0.0000   0.0000   0.0000   0.0000   0.0000
     0.0000   0.0000   0.0000   0.0000   0.0000   0.0000   0.0000   0.0000
     0.0000   0.0000   0.0000   0.0000   0.0000   0.0000   0.0000   0.0000
     0.0000   0.0000   0.0000   0.0000   0.0000   0.0000   0.0000   0.0000
     0.0000   0.0000   0.0000   0.0000   0.0000   0.0000   0.0000   0.0000
     0.0000   0.0000   0.0000   0.0000   0.0000   0.0000   0.0000   0.0000
     0.0000   0.0000   0.0000   0.0000   0.0000   0.0000   0.0000   0.0000
     0.0000   0.0000   0.0000   0.0000   0.0000   0.0000   0.0000   0.0000

          k = 0.0000 0.0000-0.0372 ( 14934 PWs)   bands (ev):

   -66.6931 -40.8960 -40.6372 -40.6372 -20.1785 -18.8130 -11.7262  -8.6012
    -8.6012  -7.7928  -7.4461  -7.4461  -6.0182  -3.0914  -3.0914  -2.8120
    -2.8120  -0.3417  -0.1572   0.4374   2.1830   2.3411   3.1230   4.8343
     4.8343   5.3432   5.9916   6.8631   6.8631   7.1585   9.4559  10.0955
    10.1791  10.1791  10.4918  10.4918  10.5983  12.3592  13.9433  14.2690
    14.9579  16.6628  17.2134  17.2134  18.3063  18.8366  18.8366  19.2801
    19.4741  19.5361  19.5361  19.6940  19.6940  19.8684  20.2384  20.5356
    20.5356  20.5594  21.4635  21.4635  21.6701  21.8786  21.8786  21.9288
    22.1979  22.1979  22.2320  22.6385  22.6385  22.8115  23.1713  24.2863
    24.3737  24.3737  24.3802  24.3802  24.6853  25.1986  25.4787  25.4787
    25.6135  25.6135  26.0019  26.6575  27.2671  27.2671  27.7829  27.7829
    27.8748  28.4465  28.7212  28.9470  28.9470  29.4475  29.5733  29.5734
    30.6221  30.8308  30.8308  31.0112  31.3627  31.3627  31.5661  31.5661
    31.6615  32.3844  33.0228  33.5218  33.6428  33.6428  33.9890  33.9890
    34.4261  34.7375  35.1373  35.1373  35.9629  35.9629  36.0264  36.6475
    36.6475  36.7241  37.1647  37.2692  37.2692  37.6089  38.2375  38.2375
    38.3837  38.9909  38.9909  39.7790  40.0891  40.0891  40.4015  40.5761
    40.5761  41.0040  41.4049  41.4049  41.7558  41.7558  42.1218  42.1855
    42.5870  42.8202  42.8202  43.8249  44.7340  44.7340  45.4771  45.5073
    45.6432  45.6432  46.0737  46.5683  46.5683  47.0277  47.0277  47.2389
    47.5873  48.3021  49.1890  49.4020  49.4020  49.8229  49.8229  50.2960
    50.8529  50.8529  51.0814  51.7277  51.7277  52.1885  52.1885  52.4706
    52.8382  53.1048  53.1048  53.8603  54.3452  54.3452  54.8758  54.8972
    55.4285  55.6708  55.6708  56.2685  56.6909  56.6909  57.0898  57.0926
    57.0926  57.5537  57.9306  57.9306  58.6763  58.8006  58.8006  59.0535

     occupation numbers 
     1.0000   1.0000   1.0000   1.0000   1.0000   1.0000   1.0000   1.0000
     1.0000   1.0000   1.0000   1.0000   1.0000   0.0000   0.0000   0.0000
     0.0000   0.0000   0.0000   0.0000   0.0000   0.0000   0.0000   0.0000
     0.0000   0.0000   0.0000   0.0000   0.0000   0.0000   0.0000   0.0000
     0.0000   0.0000   0.0000   0.0000   0.0000   0.0000   0.0000   0.0000
     0.0000   0.0000   0.0000   0.0000   0.0000   0.0000   0.0000   0.0000
     0.0000   0.0000   0.0000   0.0000   0.0000   0.0000   0.0000   0.0000
     0.0000   0.0000   0.0000   0.0000   0.0000   0.0000   0.0000   0.0000
     0.0000   0.0000   0.0000   0.0000   0.0000   0.0000   0.0000   0.0000
     0.0000   0.0000   0.0000   0.0000   0.0000   0.0000   0.0000   0.0000
     0.0000   0.0000   0.0000   0.0000   0.0000   0.0000   0.0000   0.0000
     0.0000   0.0000   0.0000   0.0000   0.0000   0.0000   0.0000   0.0000
     0.0000   0.0000   0.0000   0.0000   0.0000   0.0000   0.0000   0.0000
     0.0000   0.0000   0.0000   0.0000   0.0000   0.0000   0.0000   0.0000
     0.0000   0.0000   0.0000   0.0000   0.0000   0.0000   0.0000   0.0000
     0.0000   0.0000   0.0000   0.0000   0.0000   0.0000   0.0000   0.0000
     0.0000   0.0000   0.0000   0.0000   0.0000   0.0000   0.0000   0.0000
     0.0000   0.0000   0.0000   0.0000   0.0000   0.0000   0.0000   0.0000
     0.0000   0.0000   0.0000   0.0000   0.0000   0.0000   0.0000   0.0000
     0.0000   0.0000   0.0000   0.0000   0.0000   0.0000   0.0000   0.0000
     0.0000   0.0000   0.0000   0.0000   0.0000   0.0000   0.0000   0.0000
     0.0000   0.0000   0.0000   0.0000   0.0000   0.0000   0.0000   0.0000
     0.0000   0.0000   0.0000   0.0000   0.0000   0.0000   0.0000   0.0000
     0.0000   0.0000   0.0000   0.0000   0.0000   0.0000   0.0000   0.0000
     0.0000   0.0000   0.0000   0.0000   0.0000   0.0000   0.0000   0.0000

          k = 0.1000 0.0577-0.0297 ( 14903 PWs)   bands (ev):

   -66.6889 -40.8878 -40.6789 -40.6467 -20.0228 -18.7499 -11.5531  -8.9331
    -8.4384  -8.4137  -7.6859  -7.0672  -6.0893  -3.2754  -3.2231  -2.9859
    -2.8281  -0.0716   0.0399   1.0876   2.3803   2.5222   3.7730   4.3438
     5.3162   5.6742   5.7723   6.2654   6.9238   7.0201   9.2188   9.4129
     9.9749  10.4482  10.5807  10.6433  11.7619  12.8511  14.3789  15.1244
    15.2134  15.8287  15.9612  16.5708  17.2879  17.4630  17.6397  17.6930
    18.3338  18.3950  18.5258  18.8133  19.0727  19.9785  20.1182  20.1182
    20.3549  20.7963  21.2829  21.3515  21.4484  21.9184  21.9665  22.2828
    22.8427  22.8788  23.1429  23.2064  23.5749  23.6707  23.9500  24.1914
    24.2101  24.5191  24.5604  24.8801  25.2763  25.5482  25.7866  25.9488
    26.0112  26.3208  26.6208  27.1634  27.4476  27.5941  27.7276  27.8454
    28.2281  28.6537  28.9632  29.1691  29.1732  29.5173  29.5594  29.6795
    30.0385  30.4643  30.9251  31.0893  31.2800  31.6009  31.6040  31.8825
    32.3789  32.6812  33.0038  33.1495  33.3246  33.7321  34.1285  34.1733
    34.5240  34.7133  34.9421  35.2466  35.4566  35.5144  36.0842  36.5336
    36.6549  36.8296  37.4515  37.5510  37.5959  38.3693  38.4471  38.4711
    38.6589  39.0283  39.3647  39.9864  40.1030  40.1167  40.6326  40.8508
    41.1941  41.6692  41.6874  42.0857  42.3234  42.3993  42.7230  42.8963
    43.3367  43.5654  43.8017  44.1960  44.3003  44.5810  44.8704  45.2504
    45.4140  45.6529  45.9453  46.1900  46.7680  47.1995  47.3811  47.5367
    47.8325  48.3779  48.4084  48.5473  49.3102  49.5603  49.8602  50.0976
    50.1787  50.7946  51.1312  51.2705  51.4244  51.7212  52.2712  52.2795
    52.9669  52.9823  53.5578  53.6145  53.9297  53.9865  54.2629  54.4943
    54.7694  55.1290  55.3096  55.4955  55.5108  55.7003  55.7114  56.1171
    56.3027  56.6084  56.7279  57.0706  57.1617  57.4261  57.6773  57.8004

     occupation numbers 
     1.0000   1.0000   1.0000   1.0000   1.0000   1.0000   1.0000   1.0000
     1.0000   1.0000   1.0000   1.0000   1.0000   0.0000   0.0000   0.0000
     0.0000   0.0000   0.0000   0.0000   0.0000   0.0000   0.0000   0.0000
     0.0000   0.0000   0.0000   0.0000   0.0000   0.0000   0.0000   0.0000
     0.0000   0.0000   0.0000   0.0000   0.0000   0.0000   0.0000   0.0000
     0.0000   0.0000   0.0000   0.0000   0.0000   0.0000   0.0000   0.0000
     0.0000   0.0000   0.0000   0.0000   0.0000   0.0000   0.0000   0.0000
     0.0000   0.0000   0.0000   0.0000   0.0000   0.0000   0.0000   0.0000
     0.0000   0.0000   0.0000   0.0000   0.0000   0.0000   0.0000   0.0000
     0.0000   0.0000   0.0000   0.0000   0.0000   0.0000   0.0000   0.0000
     0.0000   0.0000   0.0000   0.0000   0.0000   0.0000   0.0000   0.0000
     0.0000   0.0000   0.0000   0.0000   0.0000   0.0000   0.0000   0.0000
     0.0000   0.0000   0.0000   0.0000   0.0000   0.0000   0.0000   0.0000
     0.0000   0.0000   0.0000   0.0000   0.0000   0.0000   0.0000   0.0000
     0.0000   0.0000   0.0000   0.0000   0.0000   0.0000   0.0000   0.0000
     0.0000   0.0000   0.0000   0.0000   0.0000   0.0000   0.0000   0.0000
     0.0000   0.0000   0.0000   0.0000   0.0000   0.0000   0.0000   0.0000
     0.0000   0.0000   0.0000   0.0000   0.0000   0.0000   0.0000   0.0000
     0.0000   0.0000   0.0000   0.0000   0.0000   0.0000   0.0000   0.0000
     0.0000   0.0000   0.0000   0.0000   0.0000   0.0000   0.0000   0.0000
     0.0000   0.0000   0.0000   0.0000   0.0000   0.0000   0.0000   0.0000
     0.0000   0.0000   0.0000   0.0000   0.0000   0.0000   0.0000   0.0000
     0.0000   0.0000   0.0000   0.0000   0.0000   0.0000   0.0000   0.0000
     0.0000   0.0000   0.0000   0.0000   0.0000   0.0000   0.0000   0.0000
     0.0000   0.0000   0.0000   0.0000   0.0000   0.0000   0.0000   0.0000

          k = 0.2000 0.1155-0.0223 ( 14846 PWs)   bands (ev):

   -66.6779 -40.8662 -40.7867 -40.6712 -19.5908 -18.5751 -11.1750  -9.5951
    -9.2266  -8.2026  -8.0004  -7.1061  -6.4508  -3.7151  -3.3451  -3.2106
    -2.2879   0.4909   0.6026   2.2610   2.9634   3.0819   3.7503   3.8999
     5.6696   5.9470   6.5179   6.5941   6.6111   7.2676   8.2891   8.8535
     9.0753  11.0457  11.1765  11.3088  12.6446  12.7670  13.9839  14.1038
    14.7696  14.9461  15.5265  15.9924  16.0199  16.2699  16.5534  16.6620
    17.1873  17.7306  17.7929  18.1323  18.1564  18.7766  18.9032  19.2152
    19.5179  19.6079  19.9904  20.9938  21.3831  21.5455  21.8453  22.1517
    22.9535  23.2349  23.7542  23.8331  24.1762  24.2524  24.4663  24.8120
    25.0009  25.2243  25.2732  25.4038  25.9263  26.1495  26.3065  26.5482
    27.0218  27.2530  27.4487  27.5691  27.7648  27.8850  28.3501  28.5348
    28.7296  28.8094  29.2322  29.2467  29.5252  29.7492  30.0387  30.3562
    30.6286  30.9750  31.2384  31.4447  31.6455  31.8692  32.0429  32.3916
    32.7976  33.0963  33.2831  33.4805  33.5690  33.9650  34.4388  34.9231
    34.9267  35.1273  35.3607  35.6500  36.1829  36.5447  36.6113  37.0465
    37.1671  37.6595  37.7056  37.9159  38.2102  38.5712  38.7902  39.2430
    39.5162  39.8397  40.0931  40.4600  40.8637  41.1579  41.1858  41.4355
    41.4415  41.8364  41.9813  42.4143  42.7349  42.8277  42.8862  43.2997
    43.6050  43.7243  44.1992  44.7681  44.9583  44.9812  45.4677  45.4854
    45.6066  45.9533  45.9666  46.3569  46.8474  47.0769  47.2808  47.6553
    47.9397  48.4037  48.5534  48.5870  49.0852  49.2390  49.3109  49.5141
    49.5501  50.0264  50.2822  50.3322  50.7432  50.8101  51.1333  51.1522
    51.6384  51.6773  51.7293  51.9838  52.1385  52.4409  52.5507  52.6400
    53.1459  53.6544  54.0910  54.2994  54.4482  54.4561  54.8048  55.1189
    55.4321  55.7614  55.8717  55.9907  56.2306  56.3944  56.5000  56.8837

     occupation numbers 
     1.0000   1.0000   1.0000   1.0000   1.0000   1.0000   1.0000   1.0000
     1.0000   1.0000   1.0000   1.0000   1.0000   0.0000   0.0000   0.0000
     0.0000   0.0000   0.0000   0.0000   0.0000   0.0000   0.0000   0.0000
     0.0000   0.0000   0.0000   0.0000   0.0000   0.0000   0.0000   0.0000
     0.0000   0.0000   0.0000   0.0000   0.0000   0.0000   0.0000   0.0000
     0.0000   0.0000   0.0000   0.0000   0.0000   0.0000   0.0000   0.0000
     0.0000   0.0000   0.0000   0.0000   0.0000   0.0000   0.0000   0.0000
     0.0000   0.0000   0.0000   0.0000   0.0000   0.0000   0.0000   0.0000
     0.0000   0.0000   0.0000   0.0000   0.0000   0.0000   0.0000   0.0000
     0.0000   0.0000   0.0000   0.0000   0.0000   0.0000   0.0000   0.0000
     0.0000   0.0000   0.0000   0.0000   0.0000   0.0000   0.0000   0.0000
     0.0000   0.0000   0.0000   0.0000   0.0000   0.0000   0.0000   0.0000
     0.0000   0.0000   0.0000   0.0000   0.0000   0.0000   0.0000   0.0000
     0.0000   0.0000   0.0000   0.0000   0.0000   0.0000   0.0000   0.0000
     0.0000   0.0000   0.0000   0.0000   0.0000   0.0000   0.0000   0.0000
     0.0000   0.0000   0.0000   0.0000   0.0000   0.0000   0.0000   0.0000
     0.0000   0.0000   0.0000   0.0000   0.0000   0.0000   0.0000   0.0000
     0.0000   0.0000   0.0000   0.0000   0.0000   0.0000   0.0000   0.0000
     0.0000   0.0000   0.0000   0.0000   0.0000   0.0000   0.0000   0.0000
     0.0000   0.0000   0.0000   0.0000   0.0000   0.0000   0.0000   0.0000
     0.0000   0.0000   0.0000   0.0000   0.0000   0.0000   0.0000   0.0000
     0.0000   0.0000   0.0000   0.0000   0.0000   0.0000   0.0000   0.0000
     0.0000   0.0000   0.0000   0.0000   0.0000   0.0000   0.0000   0.0000
     0.0000   0.0000   0.0000   0.0000   0.0000   0.0000   0.0000   0.0000
     0.0000   0.0000   0.0000   0.0000   0.0000   0.0000   0.0000   0.0000

          k = 0.3000 0.1732-0.0149 ( 14834 PWs)   bands (ev):

   -66.6643 -40.9175 -40.8393 -40.7014 -18.9904 -18.3360 -11.1972 -10.0232
    -9.8963  -8.7093  -7.4869  -7.4469  -6.9396  -3.6711  -3.6102  -2.6701
    -1.8277   1.2028   1.3846   2.2857   2.6422   3.1692   4.0142   4.2905
     5.7457   6.2817   6.7419   6.8521   7.4922   8.0703   8.8738   9.0108
     9.0170  10.0359  10.0403  11.6046  12.0097  12.0308  12.5136  12.5814
    14.2962  14.6920  14.9622  15.4766  15.7905  15.9479  15.9749  16.3334
    16.8905  17.0135  17.3413  17.7875  18.0869  18.1557  18.4675  19.0699
    19.3540  19.5754  19.7425  20.3598  21.1601  21.2193  21.5385  21.5624
    22.0046  22.2598  22.9269  23.0958  23.4889  23.6544  24.2252  24.5423
    24.8714  25.2815  25.6009  25.7238  25.9864  26.4010  26.9933  27.0000
    27.3626  27.5717  27.7480  28.0532  28.2729  28.4240  28.7821  29.2341
    29.4504  29.7328  30.0881  30.4551  30.5025  31.0312  31.1454  31.5172
    31.7382  32.0273  32.0805  32.3074  32.3874  32.6373  33.4158  33.5600
    33.6266  33.9834  34.2160  34.3769  34.8430  35.0518  35.1622  35.4522
    35.5947  36.2049  36.3455  36.5420  36.8250  36.9571  37.3560  37.6298
    37.7193  38.0914  38.2921  38.5617  38.9172  39.2331  39.5570  39.6100
    39.9269  40.2603  40.3266  40.8683  40.9517  41.2248  41.8392  42.0821
    42.2932  42.2988  42.4181  42.7325  43.1086  43.1413  43.3269  43.6631
    43.8878  43.9567  44.0424  44.2096  44.7708  44.9072  44.9516  45.1211
    45.4846  45.8931  46.0097  46.1410  46.4544  46.5182  46.7969  46.9698
    47.2037  47.3916  47.8654  47.8871  48.1937  48.2064  48.2677  48.8839
    49.0536  49.2609  49.5184  49.5196  50.0144  50.0395  50.2093  50.3241
    50.6455  50.9753  51.2969  51.5773  51.6791  52.0689  52.4648  52.8113
    52.9974  53.2129  53.6160  53.7541  53.9220  54.1656  54.3998  54.6641
    55.0229  55.1250  55.2186  55.4819  55.4839  55.6351  55.9711  56.1819

     occupation numbers 
     1.0000   1.0000   1.0000   1.0000   1.0000   1.0000   1.0000   1.0000
     1.0000   1.0000   1.0000   1.0000   1.0000   0.0000   0.0000   0.0000
     0.0000   0.0000   0.0000   0.0000   0.0000   0.0000   0.0000   0.0000
     0.0000   0.0000   0.0000   0.0000   0.0000   0.0000   0.0000   0.0000
     0.0000   0.0000   0.0000   0.0000   0.0000   0.0000   0.0000   0.0000
     0.0000   0.0000   0.0000   0.0000   0.0000   0.0000   0.0000   0.0000
     0.0000   0.0000   0.0000   0.0000   0.0000   0.0000   0.0000   0.0000
     0.0000   0.0000   0.0000   0.0000   0.0000   0.0000   0.0000   0.0000
     0.0000   0.0000   0.0000   0.0000   0.0000   0.0000   0.0000   0.0000
     0.0000   0.0000   0.0000   0.0000   0.0000   0.0000   0.0000   0.0000
     0.0000   0.0000   0.0000   0.0000   0.0000   0.0000   0.0000   0.0000
     0.0000   0.0000   0.0000   0.0000   0.0000   0.0000   0.0000   0.0000
     0.0000   0.0000   0.0000   0.0000   0.0000   0.0000   0.0000   0.0000
     0.0000   0.0000   0.0000   0.0000   0.0000   0.0000   0.0000   0.0000
     0.0000   0.0000   0.0000   0.0000   0.0000   0.0000   0.0000   0.0000
     0.0000   0.0000   0.0000   0.0000   0.0000   0.0000   0.0000   0.0000
     0.0000   0.0000   0.0000   0.0000   0.0000   0.0000   0.0000   0.0000
     0.0000   0.0000   0.0000   0.0000   0.0000   0.0000   0.0000   0.0000
     0.0000   0.0000   0.0000   0.0000   0.0000   0.0000   0.0000   0.0000
     0.0000   0.0000   0.0000   0.0000   0.0000   0.0000   0.0000   0.0000
     0.0000   0.0000   0.0000   0.0000   0.0000   0.0000   0.0000   0.0000
     0.0000   0.0000   0.0000   0.0000   0.0000   0.0000   0.0000   0.0000
     0.0000   0.0000   0.0000   0.0000   0.0000   0.0000   0.0000   0.0000
     0.0000   0.0000   0.0000   0.0000   0.0000   0.0000   0.0000   0.0000
     0.0000   0.0000   0.0000   0.0000   0.0000   0.0000   0.0000   0.0000

          k = 0.4000 0.2309-0.0074 ( 14774 PWs)   bands (ev):

   -66.6532 -41.0214 -40.8176 -40.7257 -18.4223 -18.1182 -11.6667 -10.6485
   -10.0038  -9.0546  -7.7740  -7.0178  -6.8568  -3.6414  -3.3214  -2.1783
    -1.5766   0.9357   1.7433   1.9640   2.8401   3.5903   4.3609   4.6921
     5.7390   5.8053   6.2548   7.2541   7.5133   8.6558   8.7919   9.1139
     9.7025  10.1969  10.5100  10.7573  11.0410  11.9448  12.7698  12.7870
    13.6091  13.9196  14.1820  14.5691  14.8210  15.3518  16.0964  16.2805
    16.3540  16.6410  16.8882  17.7728  17.9328  18.3946  18.5846  18.6325
    19.1346  19.2994  19.8911  19.9487  20.1919  20.2846  21.3174  21.5156
    21.5196  22.3027  22.4253  22.5718  22.8813  23.2865  23.4538  23.9734
    24.9991  25.5668  25.5749  25.6693  26.3366  26.7545  27.0207  27.1604
    27.4204  27.6548  27.7457  28.3961  28.5964  29.6750  30.0368  30.4862
    30.6854  30.8222  30.8824  31.0316  31.3570  31.5954  31.6365  32.0278
    32.2065  32.8598  33.0351  33.1557  33.1641  33.6645  33.8811  34.0842
    34.4219  34.6004  34.6126  35.0260  35.2295  35.7938  35.8206  35.9594
    36.4087  36.6537  37.4883  37.7826  37.8867  37.8869  38.0391  38.1385
    38.5082  38.6425  38.8161  39.0995  39.3585  39.9013  39.9117  40.0311
    40.1564  40.4803  40.5849  40.8302  41.0898  41.1766  41.3727  41.5702
    41.9679  41.9755  42.1340  42.4551  42.4740  42.8694  42.9228  43.0111
    43.3529  43.9457  44.1206  44.2792  44.3192  44.4827  44.5625  45.4149
    45.6074  45.8938  46.0650  46.1147  46.2641  46.5902  46.9309  47.1325
    47.2701  47.3728  47.5936  47.8917  47.9831  48.3679  48.6193  48.6902
    48.9418  48.9795  49.4145  49.5326  49.6380  50.0869  50.5659  50.5977
    50.7943  51.3509  51.3736  51.5163  51.7434  51.9458  52.0894  52.2697
    52.5932  52.6727  52.8852  53.0632  53.0852  53.4072  53.4346  53.6600
    54.4291  54.6520  54.8093  54.8445  55.0814  55.2026  55.5114  55.5206

     occupation numbers 
     1.0000   1.0000   1.0000   1.0000   1.0000   1.0000   1.0000   1.0000
     1.0000   1.0000   1.0000   1.0000   1.0000   0.0000   0.0000   0.0000
     0.0000   0.0000   0.0000   0.0000   0.0000   0.0000   0.0000   0.0000
     0.0000   0.0000   0.0000   0.0000   0.0000   0.0000   0.0000   0.0000
     0.0000   0.0000   0.0000   0.0000   0.0000   0.0000   0.0000   0.0000
     0.0000   0.0000   0.0000   0.0000   0.0000   0.0000   0.0000   0.0000
     0.0000   0.0000   0.0000   0.0000   0.0000   0.0000   0.0000   0.0000
     0.0000   0.0000   0.0000   0.0000   0.0000   0.0000   0.0000   0.0000
     0.0000   0.0000   0.0000   0.0000   0.0000   0.0000   0.0000   0.0000
     0.0000   0.0000   0.0000   0.0000   0.0000   0.0000   0.0000   0.0000
     0.0000   0.0000   0.0000   0.0000   0.0000   0.0000   0.0000   0.0000
     0.0000   0.0000   0.0000   0.0000   0.0000   0.0000   0.0000   0.0000
     0.0000   0.0000   0.0000   0.0000   0.0000   0.0000   0.0000   0.0000
     0.0000   0.0000   0.0000   0.0000   0.0000   0.0000   0.0000   0.0000
     0.0000   0.0000   0.0000   0.0000   0.0000   0.0000   0.0000   0.0000
     0.0000   0.0000   0.0000   0.0000   0.0000   0.0000   0.0000   0.0000
     0.0000   0.0000   0.0000   0.0000   0.0000   0.0000   0.0000   0.0000
     0.0000   0.0000   0.0000   0.0000   0.0000   0.0000   0.0000   0.0000
     0.0000   0.0000   0.0000   0.0000   0.0000   0.0000   0.0000   0.0000
     0.0000   0.0000   0.0000   0.0000   0.0000   0.0000   0.0000   0.0000
     0.0000   0.0000   0.0000   0.0000   0.0000   0.0000   0.0000   0.0000
     0.0000   0.0000   0.0000   0.0000   0.0000   0.0000   0.0000   0.0000
     0.0000   0.0000   0.0000   0.0000   0.0000   0.0000   0.0000   0.0000
     0.0000   0.0000   0.0000   0.0000   0.0000   0.0000   0.0000   0.0000
     0.0000   0.0000   0.0000   0.0000   0.0000   0.0000   0.0000   0.0000

          k = 0.5000 0.2887 0.0000 ( 14754 PWs)   bands (ev):

   -66.6490 -41.0607 -40.8092 -40.7349 -18.1758 -18.0277 -11.9001 -10.8904
   -10.1232  -9.1755  -7.8662  -6.8690  -6.6203  -3.5904  -3.0775  -2.0251
    -1.5035   0.1960   1.8572   2.3340   3.1010   3.7794   4.5699   5.1579
     5.3297   5.6767   5.8122   7.0085   7.3949   7.9106   8.4188   9.6496
    10.1649  10.2385  10.9081  11.3378  11.6956  12.0760  12.4293  13.0097
    13.5119  13.6577  14.0279  14.1224  14.6764  15.1870  15.8469  16.2068
    16.2068  16.7232  16.7371  17.0611  17.6570  17.7083  18.3175  18.5445
    18.7971  18.8882  19.2134  19.3523  20.3121  20.7528  21.1361  21.2776
    21.6888  22.1660  22.1820  22.3572  22.9701  23.9625  24.0457  24.5973
    25.1411  25.3382  25.6462  25.8612  26.4103  26.8055  26.8459  26.9700
    27.0379  27.4474  28.1101  28.7699  29.0239  29.6916  30.0357  30.2074
    30.2304  30.7306  30.9649  31.5673  31.7597  31.8920  32.4906  32.7943
    32.8304  32.8855  33.6869  33.9208  33.9336  34.1549  34.6895  34.9025
    35.0791  35.1426  35.2884  35.5036  35.5723  35.7216  36.0144  36.2135
    36.2923  36.6515  36.9989  37.2191  37.3283  37.6134  37.6669  37.9102
    38.0875  38.2705  38.7742  38.7983  38.9077  39.0226  39.5475  39.7992
    39.9559  40.5927  41.0748  41.1088  41.2156  41.3951  41.8488  42.0097
    42.1395  42.1458  42.5389  42.5492  43.1369  43.2536  43.4449  43.6671
    43.8665  44.0030  44.2778  44.5469  44.6885  45.0275  45.3539  45.5356
    45.6322  45.8741  46.0215  46.3243  46.4272  46.7329  46.8628  46.9855
    47.1154  47.1625  47.5406  47.7309  48.0777  48.4401  48.5871  48.9315
    48.9635  49.2899  49.4138  49.4635  49.5668  49.7314  49.7458  49.8194
    50.8834  50.9090  51.0412  51.1215  51.3121  51.4913  51.6594  51.6616
    51.8376  52.2396  52.4185  52.8628  52.8935  52.9595  53.3105  53.4760
    53.9603  54.3218  54.6899  54.7361  54.8535  54.9281  54.9743  54.9930

     occupation numbers 
     1.0000   1.0000   1.0000   1.0000   1.0000   1.0000   1.0000   1.0000
     1.0000   1.0000   1.0000   1.0000   1.0000   0.0000   0.0000   0.0000
     0.0000   0.0000   0.0000   0.0000   0.0000   0.0000   0.0000   0.0000
     0.0000   0.0000   0.0000   0.0000   0.0000   0.0000   0.0000   0.0000
     0.0000   0.0000   0.0000   0.0000   0.0000   0.0000   0.0000   0.0000
     0.0000   0.0000   0.0000   0.0000   0.0000   0.0000   0.0000   0.0000
     0.0000   0.0000   0.0000   0.0000   0.0000   0.0000   0.0000   0.0000
     0.0000   0.0000   0.0000   0.0000   0.0000   0.0000   0.0000   0.0000
     0.0000   0.0000   0.0000   0.0000   0.0000   0.0000   0.0000   0.0000
     0.0000   0.0000   0.0000   0.0000   0.0000   0.0000   0.0000   0.0000
     0.0000   0.0000   0.0000   0.0000   0.0000   0.0000   0.0000   0.0000
     0.0000   0.0000   0.0000   0.0000   0.0000   0.0000   0.0000   0.0000
     0.0000   0.0000   0.0000   0.0000   0.0000   0.0000   0.0000   0.0000
     0.0000   0.0000   0.0000   0.0000   0.0000   0.0000   0.0000   0.0000
     0.0000   0.0000   0.0000   0.0000   0.0000   0.0000   0.0000   0.0000
     0.0000   0.0000   0.0000   0.0000   0.0000   0.0000   0.0000   0.0000
     0.0000   0.0000   0.0000   0.0000   0.0000   0.0000   0.0000   0.0000
     0.0000   0.0000   0.0000   0.0000   0.0000   0.0000   0.0000   0.0000
     0.0000   0.0000   0.0000   0.0000   0.0000   0.0000   0.0000   0.0000
     0.0000   0.0000   0.0000   0.0000   0.0000   0.0000   0.0000   0.0000
     0.0000   0.0000   0.0000   0.0000   0.0000   0.0000   0.0000   0.0000
     0.0000   0.0000   0.0000   0.0000   0.0000   0.0000   0.0000   0.0000
     0.0000   0.0000   0.0000   0.0000   0.0000   0.0000   0.0000   0.0000
     0.0000   0.0000   0.0000   0.0000   0.0000   0.0000   0.0000   0.0000
     0.0000   0.0000   0.0000   0.0000   0.0000   0.0000   0.0000   0.0000

          k = 0.4000 0.2309 0.0000 ( 14770 PWs)   bands (ev):

   -66.6532 -41.0214 -40.8176 -40.7257 -18.4223 -18.1182 -11.6667 -10.6485
   -10.0038  -9.0546  -7.7740  -7.0178  -6.8568  -3.6414  -3.3214  -2.1783
    -1.5766   0.9357   1.7433   1.9640   2.8401   3.5903   4.3609   4.6921
     5.7390   5.8053   6.2548   7.2541   7.5133   8.6558   8.7919   9.1139
     9.7025  10.1970  10.5100  10.7573  11.0410  11.9448  12.7696  12.7871
    13.6096  13.9193  14.1820  14.5694  14.8206  15.3518  16.0972  16.2780
    16.3540  16.6407  16.8908  17.7728  17.9321  18.3958  18.5846  18.6312
    19.1597  19.2709  19.8908  19.9487  20.1919  20.2863  21.3218  21.5121
    21.5198  22.3025  22.4417  22.5552  22.8883  23.3401  23.3921  23.9699
    24.9956  25.5696  25.5726  25.6803  26.3309  26.7802  27.0000  27.1589
    27.4392  27.6361  27.7467  28.4588  28.5235  29.6740  30.0365  30.4992
    30.7498  30.7568  30.9533  30.9569  31.3574  31.5984  31.6363  32.0166
    32.2011  32.8927  33.0098  33.1660  33.1695  33.6656  33.8831  34.0784
    34.4162  34.6267  34.6276  35.0016  35.1997  35.8093  35.8326  35.9403
    36.3864  36.6563  37.5364  37.8201  37.8236  37.9209  38.0118  38.1327
    38.5078  38.6490  38.8115  39.0923  39.3731  39.9172  39.9272  40.0144
    40.1339  40.4759  40.5893  40.8382  41.0898  41.2063  41.3403  41.5749
    41.9752  41.9923  42.1082  42.4467  42.4540  42.8688  42.9240  43.0076
    43.3504  43.9754  44.1160  44.3316  44.3364  44.4727  44.4835  45.4242
    45.6105  46.0330  46.0598  46.0721  46.1716  46.5914  46.9398  47.1605
    47.2487  47.3694  47.6001  47.8912  47.9795  48.4833  48.5338  48.6848
    48.8902  48.9768  49.4703  49.5270  49.5763  50.0774  50.5650  50.6222
    50.7793  51.3549  51.4139  51.4969  51.8263  51.9906  52.0046  52.2457
    52.5768  52.6681  52.9800  52.9846  53.0637  53.4544  53.5142  53.5530
    54.4189  54.6919  54.7712  54.8476  55.1170  55.2037  55.5105  55.5266

     occupation numbers 
     1.0000   1.0000   1.0000   1.0000   1.0000   1.0000   1.0000   1.0000
     1.0000   1.0000   1.0000   1.0000   1.0000   0.0000   0.0000   0.0000
     0.0000   0.0000   0.0000   0.0000   0.0000   0.0000   0.0000   0.0000
     0.0000   0.0000   0.0000   0.0000   0.0000   0.0000   0.0000   0.0000
     0.0000   0.0000   0.0000   0.0000   0.0000   0.0000   0.0000   0.0000
     0.0000   0.0000   0.0000   0.0000   0.0000   0.0000   0.0000   0.0000
     0.0000   0.0000   0.0000   0.0000   0.0000   0.0000   0.0000   0.0000
     0.0000   0.0000   0.0000   0.0000   0.0000   0.0000   0.0000   0.0000
     0.0000   0.0000   0.0000   0.0000   0.0000   0.0000   0.0000   0.0000
     0.0000   0.0000   0.0000   0.0000   0.0000   0.0000   0.0000   0.0000
     0.0000   0.0000   0.0000   0.0000   0.0000   0.0000   0.0000   0.0000
     0.0000   0.0000   0.0000   0.0000   0.0000   0.0000   0.0000   0.0000
     0.0000   0.0000   0.0000   0.0000   0.0000   0.0000   0.0000   0.0000
     0.0000   0.0000   0.0000   0.0000   0.0000   0.0000   0.0000   0.0000
     0.0000   0.0000   0.0000   0.0000   0.0000   0.0000   0.0000   0.0000
     0.0000   0.0000   0.0000   0.0000   0.0000   0.0000   0.0000   0.0000
     0.0000   0.0000   0.0000   0.0000   0.0000   0.0000   0.0000   0.0000
     0.0000   0.0000   0.0000   0.0000   0.0000   0.0000   0.0000   0.0000
     0.0000   0.0000   0.0000   0.0000   0.0000   0.0000   0.0000   0.0000
     0.0000   0.0000   0.0000   0.0000   0.0000   0.0000   0.0000   0.0000
     0.0000   0.0000   0.0000   0.0000   0.0000   0.0000   0.0000   0.0000
     0.0000   0.0000   0.0000   0.0000   0.0000   0.0000   0.0000   0.0000
     0.0000   0.0000   0.0000   0.0000   0.0000   0.0000   0.0000   0.0000
     0.0000   0.0000   0.0000   0.0000   0.0000   0.0000   0.0000   0.0000
     0.0000   0.0000   0.0000   0.0000   0.0000   0.0000   0.0000   0.0000

          k = 0.3000 0.1732 0.0000 ( 14833 PWs)   bands (ev):

   -66.6643 -40.9175 -40.8394 -40.7014 -18.9904 -18.3360 -11.1972 -10.0232
    -9.8963  -8.7093  -7.4869  -7.4469  -6.9396  -3.6711  -3.6102  -2.6701
    -1.8277   1.2028   1.3846   2.2857   2.6422   3.1692   4.0143   4.2905
     5.7457   6.2817   6.7418   6.8522   7.4924   8.0703   8.8738   9.0105
     9.0171  10.0359  10.0404  11.6046  12.0093  12.0309  12.5130  12.5836
    14.2964  14.6869  14.9622  15.4695  15.7905  15.9552  15.9740  16.3492
    16.8851  17.0135  17.3668  17.7546  18.0859  18.1558  18.4460  19.0699
    19.3675  19.5741  19.7495  20.3551  21.2195  21.3689  21.3848  21.5383
    22.0521  22.1583  22.9266  23.0961  23.4942  23.6478  24.2257  24.5851
    24.8705  25.2822  25.6400  25.7750  25.8764  26.5594  26.8154  26.9974
    27.3595  27.5502  27.7496  28.0484  28.3509  28.3838  28.7850  29.3296
    29.4494  29.6193  30.1162  30.4291  30.5206  31.0900  31.1185  31.5567
    31.6526  32.1124  32.1299  32.2005  32.4726  32.5559  33.4076  33.5898
    33.6542  34.0581  34.0797  34.3504  34.9570  34.9914  35.0629  35.5039
    35.6228  36.1662  36.3314  36.5937  36.8369  36.9945  37.4524  37.4718
    37.6806  38.1109  38.2902  38.5563  39.0881  39.1416  39.5757  39.6074
    39.8867  40.2909  40.3694  40.8401  40.9364  41.1716  41.8415  42.1608
    42.2504  42.2676  42.3436  42.7251  43.1553  43.2714  43.3390  43.4531
    43.9456  43.9693  44.0050  44.2139  44.7942  44.8887  45.0283  45.0431
    45.5282  45.9614  46.1980  46.3023  46.3805  46.3860  46.6326  46.9178
    47.2613  47.3113  47.8478  47.9722  48.1289  48.2478  48.3190  49.0176
    49.0951  49.1545  49.4699  49.4806  49.9340  50.0398  50.1138  50.3265
    50.5980  51.0370  51.3390  51.5862  51.8258  51.9342  52.4598  52.8632
    52.8705  53.4566  53.6180  53.9183  53.9392  54.2005  54.3708  54.3985
    55.0229  55.2424  55.2883  55.4004  55.5372  55.6562  55.6681  56.2433

     occupation numbers 
     1.0000   1.0000   1.0000   1.0000   1.0000   1.0000   1.0000   1.0000
     1.0000   1.0000   1.0000   1.0000   1.0000   0.0000   0.0000   0.0000
     0.0000   0.0000   0.0000   0.0000   0.0000   0.0000   0.0000   0.0000
     0.0000   0.0000   0.0000   0.0000   0.0000   0.0000   0.0000   0.0000
     0.0000   0.0000   0.0000   0.0000   0.0000   0.0000   0.0000   0.0000
     0.0000   0.0000   0.0000   0.0000   0.0000   0.0000   0.0000   0.0000
     0.0000   0.0000   0.0000   0.0000   0.0000   0.0000   0.0000   0.0000
     0.0000   0.0000   0.0000   0.0000   0.0000   0.0000   0.0000   0.0000
     0.0000   0.0000   0.0000   0.0000   0.0000   0.0000   0.0000   0.0000
     0.0000   0.0000   0.0000   0.0000   0.0000   0.0000   0.0000   0.0000
     0.0000   0.0000   0.0000   0.0000   0.0000   0.0000   0.0000   0.0000
     0.0000   0.0000   0.0000   0.0000   0.0000   0.0000   0.0000   0.0000
     0.0000   0.0000   0.0000   0.0000   0.0000   0.0000   0.0000   0.0000
     0.0000   0.0000   0.0000   0.0000   0.0000   0.0000   0.0000   0.0000
     0.0000   0.0000   0.0000   0.0000   0.0000   0.0000   0.0000   0.0000
     0.0000   0.0000   0.0000   0.0000   0.0000   0.0000   0.0000   0.0000
     0.0000   0.0000   0.0000   0.0000   0.0000   0.0000   0.0000   0.0000
     0.0000   0.0000   0.0000   0.0000   0.0000   0.0000   0.0000   0.0000
     0.0000   0.0000   0.0000   0.0000   0.0000   0.0000   0.0000   0.0000
     0.0000   0.0000   0.0000   0.0000   0.0000   0.0000   0.0000   0.0000
     0.0000   0.0000   0.0000   0.0000   0.0000   0.0000   0.0000   0.0000
     0.0000   0.0000   0.0000   0.0000   0.0000   0.0000   0.0000   0.0000
     0.0000   0.0000   0.0000   0.0000   0.0000   0.0000   0.0000   0.0000
     0.0000   0.0000   0.0000   0.0000   0.0000   0.0000   0.0000   0.0000
     0.0000   0.0000   0.0000   0.0000   0.0000   0.0000   0.0000   0.0000

          k = 0.2000 0.1155 0.0000 ( 14843 PWs)   bands (ev):

   -66.6779 -40.8662 -40.7867 -40.6712 -19.5908 -18.5751 -11.1750  -9.5951
    -9.2266  -8.2026  -8.0004  -7.1061  -6.4508  -3.7151  -3.3451  -3.2106
    -2.2879   0.4909   0.6026   2.2610   2.9635   3.0818   3.7503   3.9000
     5.6696   5.9466   6.5179   6.5939   6.6117   7.2676   8.2896   8.8535
     9.0737  11.0457  11.1728  11.3166  12.6447  12.7669  13.9611  14.1037
    14.7681  14.9534  15.5254  16.0122  16.1594  16.2699  16.5230  16.5534
    17.1402  17.7324  17.7708  18.1322  18.1564  18.7860  18.9033  19.2151
    19.5689  19.6420  20.2292  20.6484  21.3836  21.5452  21.8457  22.1405
    22.9524  23.2545  23.7546  23.8885  24.1752  24.4080  24.6272  24.7811
    24.8117  25.2419  25.2746  25.2932  25.9170  26.1621  26.3066  26.5471
    26.9458  27.2510  27.4414  27.5959  27.7713  27.9134  28.3307  28.6414
    28.6772  28.8003  29.1229  29.2396  29.6365  29.7407  30.2140  30.2714
    30.6626  30.8646  31.2298  31.4941  31.6493  31.9580  31.9753  32.3367
    32.9279  33.0100  33.2697  33.3843  33.4644  34.1032  34.4942  34.8034
    35.0501  35.0835  35.2072  35.7489  36.1652  36.5964  36.7080  37.0171
    37.2839  37.4734  37.6787  37.9608  38.3268  38.6065  38.9830  39.0401
    39.4190  39.8327  40.0263  40.3307  40.7876  41.2691  41.3352  41.4196
    41.5204  41.7376  42.1538  42.2089  42.5777  42.8157  42.9277  43.4998
    43.6249  43.6350  44.2036  44.7383  45.1243  45.1629  45.3532  45.6598
    45.6675  45.7555  46.0585  46.1149  46.9417  47.2392  47.2627  47.4548
    47.6141  48.3272  48.5207  48.6463  49.0921  49.3246  49.3868  49.5082
    49.5520  50.2913  50.3318  50.3842  50.7372  50.8297  50.8312  51.2161
    51.4805  51.7009  51.7975  52.0649  52.2815  52.2985  52.4624  52.8844
    52.9680  53.8085  54.0057  54.1870  54.3355  54.4382  54.9334  55.2813
    55.4904  55.6719  55.7531  56.1096  56.3806  56.4845  56.6018  56.6744

     occupation numbers 
     1.0000   1.0000   1.0000   1.0000   1.0000   1.0000   1.0000   1.0000
     1.0000   1.0000   1.0000   1.0000   1.0000   0.0000   0.0000   0.0000
     0.0000   0.0000   0.0000   0.0000   0.0000   0.0000   0.0000   0.0000
     0.0000   0.0000   0.0000   0.0000   0.0000   0.0000   0.0000   0.0000
     0.0000   0.0000   0.0000   0.0000   0.0000   0.0000   0.0000   0.0000
     0.0000   0.0000   0.0000   0.0000   0.0000   0.0000   0.0000   0.0000
     0.0000   0.0000   0.0000   0.0000   0.0000   0.0000   0.0000   0.0000
     0.0000   0.0000   0.0000   0.0000   0.0000   0.0000   0.0000   0.0000
     0.0000   0.0000   0.0000   0.0000   0.0000   0.0000   0.0000   0.0000
     0.0000   0.0000   0.0000   0.0000   0.0000   0.0000   0.0000   0.0000
     0.0000   0.0000   0.0000   0.0000   0.0000   0.0000   0.0000   0.0000
     0.0000   0.0000   0.0000   0.0000   0.0000   0.0000   0.0000   0.0000
     0.0000   0.0000   0.0000   0.0000   0.0000   0.0000   0.0000   0.0000
     0.0000   0.0000   0.0000   0.0000   0.0000   0.0000   0.0000   0.0000
     0.0000   0.0000   0.0000   0.0000   0.0000   0.0000   0.0000   0.0000
     0.0000   0.0000   0.0000   0.0000   0.0000   0.0000   0.0000   0.0000
     0.0000   0.0000   0.0000   0.0000   0.0000   0.0000   0.0000   0.0000
     0.0000   0.0000   0.0000   0.0000   0.0000   0.0000   0.0000   0.0000
     0.0000   0.0000   0.0000   0.0000   0.0000   0.0000   0.0000   0.0000
     0.0000   0.0000   0.0000   0.0000   0.0000   0.0000   0.0000   0.0000
     0.0000   0.0000   0.0000   0.0000   0.0000   0.0000   0.0000   0.0000
     0.0000   0.0000   0.0000   0.0000   0.0000   0.0000   0.0000   0.0000
     0.0000   0.0000   0.0000   0.0000   0.0000   0.0000   0.0000   0.0000
     0.0000   0.0000   0.0000   0.0000   0.0000   0.0000   0.0000   0.0000
     0.0000   0.0000   0.0000   0.0000   0.0000   0.0000   0.0000   0.0000

          k = 0.1000 0.0577 0.0000 ( 14897 PWs)   bands (ev):

   -66.6889 -40.8878 -40.6789 -40.6467 -20.0228 -18.7499 -11.5531  -8.9331
    -8.4384  -8.4137  -7.6859  -7.0672  -6.0893  -3.2754  -3.2231  -2.9859
    -2.8281  -0.0717   0.0399   1.0876   2.3802   2.5224   3.7730   4.3438
     5.3162   5.6733   5.7726   6.2667   6.9238   7.0197   9.2195   9.4075
     9.9749  10.4482  10.5791  10.6556  11.7660  12.8218  14.3493  15.1352
    15.4279  15.8460  15.8504  16.4258  17.2198  17.4630  17.6378  17.6930
    18.3390  18.3950  18.5262  18.9220  19.6332  19.7217  19.9785  20.1181
    20.1267  20.7680  21.2742  21.3516  21.4503  21.9269  21.9385  22.2828
    22.8421  22.9258  23.1434  23.2075  23.5805  23.9189  24.1918  24.1934
    24.2236  24.4470  24.5189  24.6304  25.2323  25.5527  25.7843  25.8635
    25.9828  26.3227  26.6076  27.1708  27.4463  27.5969  27.7091  27.8636
    28.2194  28.7029  28.9873  29.1611  29.3803  29.5208  29.5309  29.6709
    30.1696  30.2453  30.8737  31.1673  31.3047  31.5477  31.5704  31.8880
    32.3109  32.7605  32.9865  33.0636  33.4336  33.7381  33.9871  34.0315
    34.6526  34.8982  35.0350  35.2141  35.2158  35.3299  36.4211  36.4249
    36.9021  36.9224  37.4637  37.4679  37.7504  38.1325  38.3289  38.5687
    38.5746  39.0918  39.4480  39.4554  40.4015  40.5032  40.5532  40.5999
    40.9285  41.6637  41.6935  42.0104  42.3572  42.4783  42.8562  43.1159
    43.2397  43.8894  43.9088  44.0211  44.1654  44.4100  45.1996  45.2341
    45.4968  45.6716  45.8117  46.3487  46.5747  46.7655  47.1064  47.6152
    48.0669  48.2650  48.3683  49.0520  49.0834  49.3667  50.0913  50.1389
    50.2831  50.6023  50.9615  51.4731  51.6029  51.8892  52.0198  52.2940
    53.1277  53.1661  53.1777  53.5109  53.7341  54.3324  54.3822  54.5006
    54.8072  54.8453  55.3808  55.5400  55.5752  55.6891  55.8682  56.0591
    56.3308  56.6021  56.6787  56.9160  57.0119  57.1915  57.7986  57.9198

     occupation numbers 
     1.0000   1.0000   1.0000   1.0000   1.0000   1.0000   1.0000   1.0000
     1.0000   1.0000   1.0000   1.0000   1.0000   0.0000   0.0000   0.0000
     0.0000   0.0000   0.0000   0.0000   0.0000   0.0000   0.0000   0.0000
     0.0000   0.0000   0.0000   0.0000   0.0000   0.0000   0.0000   0.0000
     0.0000   0.0000   0.0000   0.0000   0.0000   0.0000   0.0000   0.0000
     0.0000   0.0000   0.0000   0.0000   0.0000   0.0000   0.0000   0.0000
     0.0000   0.0000   0.0000   0.0000   0.0000   0.0000   0.0000   0.0000
     0.0000   0.0000   0.0000   0.0000   0.0000   0.0000   0.0000   0.0000
     0.0000   0.0000   0.0000   0.0000   0.0000   0.0000   0.0000   0.0000
     0.0000   0.0000   0.0000   0.0000   0.0000   0.0000   0.0000   0.0000
     0.0000   0.0000   0.0000   0.0000   0.0000   0.0000   0.0000   0.0000
     0.0000   0.0000   0.0000   0.0000   0.0000   0.0000   0.0000   0.0000
     0.0000   0.0000   0.0000   0.0000   0.0000   0.0000   0.0000   0.0000
     0.0000   0.0000   0.0000   0.0000   0.0000   0.0000   0.0000   0.0000
     0.0000   0.0000   0.0000   0.0000   0.0000   0.0000   0.0000   0.0000
     0.0000   0.0000   0.0000   0.0000   0.0000   0.0000   0.0000   0.0000
     0.0000   0.0000   0.0000   0.0000   0.0000   0.0000   0.0000   0.0000
     0.0000   0.0000   0.0000   0.0000   0.0000   0.0000   0.0000   0.0000
     0.0000   0.0000   0.0000   0.0000   0.0000   0.0000   0.0000   0.0000
     0.0000   0.0000   0.0000   0.0000   0.0000   0.0000   0.0000   0.0000
     0.0000   0.0000   0.0000   0.0000   0.0000   0.0000   0.0000   0.0000
     0.0000   0.0000   0.0000   0.0000   0.0000   0.0000   0.0000   0.0000
     0.0000   0.0000   0.0000   0.0000   0.0000   0.0000   0.0000   0.0000
     0.0000   0.0000   0.0000   0.0000   0.0000   0.0000   0.0000   0.0000
     0.0000   0.0000   0.0000   0.0000   0.0000   0.0000   0.0000   0.0000

          k = 0.0000 0.0000 0.0000 ( 14903 PWs)   bands (ev):

   -66.6931 -40.8960 -40.6372 -40.6372 -20.1785 -18.8130 -11.7262  -8.6012
    -8.6012  -7.7928  -7.4461  -7.4461  -6.0182  -3.0914  -3.0914  -2.8120
    -2.8120  -0.3417  -0.1572   0.4374   2.1827   2.3414   3.1230   4.8343
     4.8343   5.3418   5.9939   6.8631   6.8631   7.1576   9.4461  10.1009
    10.1791  10.1791  10.4918  10.4918  10.6170  12.3251  13.9506  14.1999
    15.2408  16.2506  17.2134  17.2134  18.8366  18.8366  18.8767  19.1604
    19.5361  19.5361  19.5850  19.6821  19.6940  19.6940  20.2280  20.2583
    20.5356  20.5356  21.4636  21.4636  21.6759  21.8699  21.8784  21.8784
    22.1981  22.1981  22.2237  22.6383  22.6383  22.8354  23.6854  24.1632
    24.3731  24.3731  24.3810  24.3810  24.6869  25.1108  25.4775  25.4775
    25.6151  25.6151  25.7170  26.6606  27.2638  27.2638  27.7868  27.7868
    27.8465  28.6195  28.7091  28.9404  28.9404  29.5850  29.5850  30.0393
    30.0730  30.8210  30.8210  31.0525  31.3974  31.3974  31.5241  31.5241
    31.6615  32.2398  33.1886  33.2758  33.7972  33.7972  33.8204  33.8204
    34.5503  34.6343  35.4804  35.4804  35.5205  35.5205  36.1174  36.6664
    36.6664  36.9714  37.3489  37.3573  37.3573  37.7747  38.1954  38.6011
    38.6011  38.7221  38.7221  38.8992  39.7582  39.7582  40.6116  40.7905
    40.7905  41.4910  41.4910  41.6279  41.7090  41.8049  41.8049  42.1218
    42.5890  42.6958  42.6959  44.7374  44.7430  44.8315  44.8315  45.4771
    45.6224  45.6224  46.3249  46.3249  46.6046  46.7978  47.2926  47.3157
    47.3157  48.4458  48.6842  49.0413  49.0413  50.0748  50.0748  50.7540
    50.7540  50.8717  51.5561  52.0586  52.0586  52.1718  52.4121  52.4121
    52.8559  52.8559  53.2026  53.8633  53.8633  54.1272  54.1293  54.8972
    55.2348  55.5365  55.6925  55.6925  56.7881  56.7881  57.5283  57.5611
    57.5611  57.9275  57.9275  58.6763  58.6906  58.9473  58.9497  58.9555

     occupation numbers 
     1.0000   1.0000   1.0000   1.0000   1.0000   1.0000   1.0000   1.0000
     1.0000   1.0000   1.0000   1.0000   1.0000   0.0000   0.0000   0.0000
     0.0000   0.0000   0.0000   0.0000   0.0000   0.0000   0.0000   0.0000
     0.0000   0.0000   0.0000   0.0000   0.0000   0.0000   0.0000   0.0000
     0.0000   0.0000   0.0000   0.0000   0.0000   0.0000   0.0000   0.0000
     0.0000   0.0000   0.0000   0.0000   0.0000   0.0000   0.0000   0.0000
     0.0000   0.0000   0.0000   0.0000   0.0000   0.0000   0.0000   0.0000
     0.0000   0.0000   0.0000   0.0000   0.0000   0.0000   0.0000   0.0000
     0.0000   0.0000   0.0000   0.0000   0.0000   0.0000   0.0000   0.0000
     0.0000   0.0000   0.0000   0.0000   0.0000   0.0000   0.0000   0.0000
     0.0000   0.0000   0.0000   0.0000   0.0000   0.0000   0.0000   0.0000
     0.0000   0.0000   0.0000   0.0000   0.0000   0.0000   0.0000   0.0000
     0.0000   0.0000   0.0000   0.0000   0.0000   0.0000   0.0000   0.0000
     0.0000   0.0000   0.0000   0.0000   0.0000   0.0000   0.0000   0.0000
     0.0000   0.0000   0.0000   0.0000   0.0000   0.0000   0.0000   0.0000
     0.0000   0.0000   0.0000   0.0000   0.0000   0.0000   0.0000   0.0000
     0.0000   0.0000   0.0000   0.0000   0.0000   0.0000   0.0000   0.0000
     0.0000   0.0000   0.0000   0.0000   0.0000   0.0000   0.0000   0.0000
     0.0000   0.0000   0.0000   0.0000   0.0000   0.0000   0.0000   0.0000
     0.0000   0.0000   0.0000   0.0000   0.0000   0.0000   0.0000   0.0000
     0.0000   0.0000   0.0000   0.0000   0.0000   0.0000   0.0000   0.0000
     0.0000   0.0000   0.0000   0.0000   0.0000   0.0000   0.0000   0.0000
     0.0000   0.0000   0.0000   0.0000   0.0000   0.0000   0.0000   0.0000
     0.0000   0.0000   0.0000   0.0000   0.0000   0.0000   0.0000   0.0000
     0.0000   0.0000   0.0000   0.0000   0.0000   0.0000   0.0000   0.0000

          k =-0.1000-0.0577 0.0000 ( 14897 PWs)   bands (ev):

   -66.6889 -40.8878 -40.6789 -40.6467 -20.0228 -18.7499 -11.5531  -8.9331
    -8.4384  -8.4137  -7.6859  -7.0672  -6.0893  -3.2754  -3.2231  -2.9859
    -2.8281  -0.0717   0.0399   1.0876   2.3802   2.5224   3.7730   4.3438
     5.3162   5.6733   5.7726   6.2667   6.9238   7.0197   9.2195   9.4075
     9.9749  10.4482  10.5791  10.6556  11.7660  12.8218  14.3493  15.1352
    15.4279  15.8460  15.8504  16.4258  17.2198  17.4630  17.6378  17.6930
    18.3390  18.3950  18.5262  18.9220  19.6332  19.7217  19.9785  20.1181
    20.1267  20.7680  21.2742  21.3516  21.4503  21.9269  21.9385  22.2828
    22.8421  22.9258  23.1434  23.2075  23.5805  23.9189  24.1918  24.1934
    24.2236  24.4470  24.5189  24.6304  25.2323  25.5527  25.7843  25.8635
    25.9828  26.3227  26.6076  27.1708  27.4463  27.5969  27.7091  27.8636
    28.2194  28.7029  28.9873  29.1611  29.3803  29.5208  29.5309  29.6709
    30.1696  30.2453  30.8737  31.1673  31.3047  31.5477  31.5704  31.8880
    32.3109  32.7605  32.9865  33.0636  33.4336  33.7381  33.9871  34.0315
    34.6526  34.8982  35.0350  35.2141  35.2158  35.3299  36.4211  36.4249
    36.9021  36.9224  37.4637  37.4679  37.7504  38.1325  38.3289  38.5687
    38.5746  39.0918  39.4480  39.4554  40.4015  40.5032  40.5532  40.5999
    40.9285  41.6637  41.6935  42.0104  42.3572  42.4783  42.8562  43.1159
    43.2397  43.8894  43.9088  44.0211  44.1654  44.4100  45.1996  45.2341
    45.4968  45.6716  45.8117  46.3487  46.5747  46.7655  47.1064  47.6152
    48.0669  48.2650  48.3683  49.0520  49.0834  49.3667  50.0913  50.1389
    50.2831  50.6023  50.9615  51.4731  51.6029  51.8892  52.0198  52.2940
    53.1277  53.1661  53.1777  53.5109  53.7341  54.3324  54.3822  54.5006
    54.8072  54.8453  55.3808  55.5400  55.5752  55.6891  55.8682  56.0591
    56.3308  56.6021  56.6787  56.9160  57.0119  57.1915  57.7986  57.9198

     occupation numbers 
     1.0000   1.0000   1.0000   1.0000   1.0000   1.0000   1.0000   1.0000
     1.0000   1.0000   1.0000   1.0000   1.0000   0.0000   0.0000   0.0000
     0.0000   0.0000   0.0000   0.0000   0.0000   0.0000   0.0000   0.0000
     0.0000   0.0000   0.0000   0.0000   0.0000   0.0000   0.0000   0.0000
     0.0000   0.0000   0.0000   0.0000   0.0000   0.0000   0.0000   0.0000
     0.0000   0.0000   0.0000   0.0000   0.0000   0.0000   0.0000   0.0000
     0.0000   0.0000   0.0000   0.0000   0.0000   0.0000   0.0000   0.0000
     0.0000   0.0000   0.0000   0.0000   0.0000   0.0000   0.0000   0.0000
     0.0000   0.0000   0.0000   0.0000   0.0000   0.0000   0.0000   0.0000
     0.0000   0.0000   0.0000   0.0000   0.0000   0.0000   0.0000   0.0000
     0.0000   0.0000   0.0000   0.0000   0.0000   0.0000   0.0000   0.0000
     0.0000   0.0000   0.0000   0.0000   0.0000   0.0000   0.0000   0.0000
     0.0000   0.0000   0.0000   0.0000   0.0000   0.0000   0.0000   0.0000
     0.0000   0.0000   0.0000   0.0000   0.0000   0.0000   0.0000   0.0000
     0.0000   0.0000   0.0000   0.0000   0.0000   0.0000   0.0000   0.0000
     0.0000   0.0000   0.0000   0.0000   0.0000   0.0000   0.0000   0.0000
     0.0000   0.0000   0.0000   0.0000   0.0000   0.0000   0.0000   0.0000
     0.0000   0.0000   0.0000   0.0000   0.0000   0.0000   0.0000   0.0000
     0.0000   0.0000   0.0000   0.0000   0.0000   0.0000   0.0000   0.0000
     0.0000   0.0000   0.0000   0.0000   0.0000   0.0000   0.0000   0.0000
     0.0000   0.0000   0.0000   0.0000   0.0000   0.0000   0.0000   0.0000
     0.0000   0.0000   0.0000   0.0000   0.0000   0.0000   0.0000   0.0000
     0.0000   0.0000   0.0000   0.0000   0.0000   0.0000   0.0000   0.0000
     0.0000   0.0000   0.0000   0.0000   0.0000   0.0000   0.0000   0.0000
     0.0000   0.0000   0.0000   0.0000   0.0000   0.0000   0.0000   0.0000

          k =-0.2000-0.1155 0.0000 ( 14843 PWs)   bands (ev):

   -66.6779 -40.8662 -40.7867 -40.6712 -19.5908 -18.5751 -11.1750  -9.5951
    -9.2266  -8.2026  -8.0004  -7.1061  -6.4508  -3.7151  -3.3451  -3.2106
    -2.2879   0.4909   0.6026   2.2610   2.9635   3.0818   3.7503   3.9000
     5.6696   5.9466   6.5179   6.5939   6.6117   7.2676   8.2896   8.8535
     9.0737  11.0457  11.1728  11.3166  12.6447  12.7669  13.9611  14.1037
    14.7681  14.9534  15.5254  16.0122  16.1594  16.2699  16.5230  16.5534
    17.1402  17.7324  17.7708  18.1322  18.1564  18.7860  18.9033  19.2151
    19.5689  19.6420  20.2292  20.6484  21.3836  21.5452  21.8457  22.1405
    22.9524  23.2545  23.7546  23.8885  24.1752  24.4080  24.6272  24.7811
    24.8117  25.2419  25.2746  25.2932  25.9170  26.1621  26.3066  26.5471
    26.9458  27.2510  27.4414  27.5959  27.7713  27.9134  28.3307  28.6414
    28.6772  28.8003  29.1229  29.2396  29.6365  29.7407  30.2140  30.2714
    30.6626  30.8646  31.2298  31.4941  31.6493  31.9580  31.9753  32.3367
    32.9279  33.0100  33.2697  33.3843  33.4644  34.1032  34.4942  34.8034
    35.0501  35.0835  35.2072  35.7489  36.1652  36.5964  36.7080  37.0171
    37.2839  37.4734  37.6787  37.9608  38.3268  38.6065  38.9830  39.0401
    39.4190  39.8327  40.0263  40.3307  40.7876  41.2691  41.3352  41.4196
    41.5204  41.7376  42.1538  42.2089  42.5777  42.8157  42.9277  43.4998
    43.6249  43.6350  44.2036  44.7383  45.1243  45.1629  45.3532  45.6598
    45.6675  45.7555  46.0585  46.1149  46.9417  47.2392  47.2627  47.4548
    47.6141  48.3272  48.5207  48.6463  49.0921  49.3246  49.3868  49.5082
    49.5520  50.2913  50.3318  50.3842  50.7372  50.8297  50.8312  51.2161
    51.4805  51.7009  51.7975  52.0649  52.2815  52.2985  52.4624  52.8844
    52.9680  53.8085  54.0057  54.1870  54.3355  54.4382  54.9334  55.2813
    55.4904  55.6719  55.7531  56.1096  56.3806  56.4845  56.6018  56.6744

     occupation numbers 
     1.0000   1.0000   1.0000   1.0000   1.0000   1.0000   1.0000   1.0000
     1.0000   1.0000   1.0000   1.0000   1.0000   0.0000   0.0000   0.0000
     0.0000   0.0000   0.0000   0.0000   0.0000   0.0000   0.0000   0.0000
     0.0000   0.0000   0.0000   0.0000   0.0000   0.0000   0.0000   0.0000
     0.0000   0.0000   0.0000   0.0000   0.0000   0.0000   0.0000   0.0000
     0.0000   0.0000   0.0000   0.0000   0.0000   0.0000   0.0000   0.0000
     0.0000   0.0000   0.0000   0.0000   0.0000   0.0000   0.0000   0.0000
     0.0000   0.0000   0.0000   0.0000   0.0000   0.0000   0.0000   0.0000
     0.0000   0.0000   0.0000   0.0000   0.0000   0.0000   0.0000   0.0000
     0.0000   0.0000   0.0000   0.0000   0.0000   0.0000   0.0000   0.0000
     0.0000   0.0000   0.0000   0.0000   0.0000   0.0000   0.0000   0.0000
     0.0000   0.0000   0.0000   0.0000   0.0000   0.0000   0.0000   0.0000
     0.0000   0.0000   0.0000   0.0000   0.0000   0.0000   0.0000   0.0000
     0.0000   0.0000   0.0000   0.0000   0.0000   0.0000   0.0000   0.0000
     0.0000   0.0000   0.0000   0.0000   0.0000   0.0000   0.0000   0.0000
     0.0000   0.0000   0.0000   0.0000   0.0000   0.0000   0.0000   0.0000
     0.0000   0.0000   0.0000   0.0000   0.0000   0.0000   0.0000   0.0000
     0.0000   0.0000   0.0000   0.0000   0.0000   0.0000   0.0000   0.0000
     0.0000   0.0000   0.0000   0.0000   0.0000   0.0000   0.0000   0.0000
     0.0000   0.0000   0.0000   0.0000   0.0000   0.0000   0.0000   0.0000
     0.0000   0.0000   0.0000   0.0000   0.0000   0.0000   0.0000   0.0000
     0.0000   0.0000   0.0000   0.0000   0.0000   0.0000   0.0000   0.0000
     0.0000   0.0000   0.0000   0.0000   0.0000   0.0000   0.0000   0.0000
     0.0000   0.0000   0.0000   0.0000   0.0000   0.0000   0.0000   0.0000
     0.0000   0.0000   0.0000   0.0000   0.0000   0.0000   0.0000   0.0000

          k =-0.3000-0.1732 0.0000 ( 14833 PWs)   bands (ev):

   -66.6643 -40.9175 -40.8394 -40.7014 -18.9904 -18.3360 -11.1972 -10.0232
    -9.8963  -8.7093  -7.4869  -7.4469  -6.9396  -3.6711  -3.6102  -2.6701
    -1.8277   1.2028   1.3846   2.2857   2.6422   3.1692   4.0143   4.2905
     5.7457   6.2817   6.7418   6.8522   7.4924   8.0703   8.8738   9.0105
     9.0171  10.0359  10.0404  11.6046  12.0093  12.0309  12.5130  12.5836
    14.2964  14.6869  14.9622  15.4695  15.7905  15.9552  15.9740  16.3492
    16.8851  17.0135  17.3668  17.7546  18.0859  18.1558  18.4460  19.0699
    19.3675  19.5741  19.7495  20.3551  21.2195  21.3689  21.3848  21.5383
    22.0521  22.1583  22.9266  23.0961  23.4942  23.6478  24.2257  24.5851
    24.8705  25.2822  25.6400  25.7750  25.8764  26.5594  26.8154  26.9974
    27.3595  27.5502  27.7496  28.0484  28.3509  28.3838  28.7850  29.3296
    29.4494  29.6193  30.1162  30.4291  30.5206  31.0900  31.1185  31.5567
    31.6526  32.1124  32.1299  32.2005  32.4726  32.5559  33.4076  33.5898
    33.6542  34.0581  34.0797  34.3504  34.9570  34.9914  35.0629  35.5039
    35.6228  36.1662  36.3314  36.5937  36.8369  36.9945  37.4524  37.4718
    37.6806  38.1109  38.2902  38.5563  39.0881  39.1416  39.5757  39.6074
    39.8867  40.2909  40.3694  40.8401  40.9364  41.1716  41.8415  42.1608
    42.2504  42.2676  42.3436  42.7251  43.1553  43.2714  43.3390  43.4531
    43.9456  43.9693  44.0050  44.2139  44.7942  44.8887  45.0283  45.0431
    45.5282  45.9614  46.1980  46.3023  46.3805  46.3860  46.6326  46.9178
    47.2613  47.3113  47.8478  47.9722  48.1289  48.2478  48.3190  49.0176
    49.0951  49.1545  49.4699  49.4806  49.9340  50.0398  50.1138  50.3265
    50.5980  51.0370  51.3390  51.5862  51.8258  51.9342  52.4598  52.8632
    52.8705  53.4566  53.6180  53.9183  53.9392  54.2005  54.3708  54.3985
    55.0229  55.2424  55.2883  55.4004  55.5372  55.6562  55.6681  56.2433

     occupation numbers 
     1.0000   1.0000   1.0000   1.0000   1.0000   1.0000   1.0000   1.0000
     1.0000   1.0000   1.0000   1.0000   1.0000   0.0000   0.0000   0.0000
     0.0000   0.0000   0.0000   0.0000   0.0000   0.0000   0.0000   0.0000
     0.0000   0.0000   0.0000   0.0000   0.0000   0.0000   0.0000   0.0000
     0.0000   0.0000   0.0000   0.0000   0.0000   0.0000   0.0000   0.0000
     0.0000   0.0000   0.0000   0.0000   0.0000   0.0000   0.0000   0.0000
     0.0000   0.0000   0.0000   0.0000   0.0000   0.0000   0.0000   0.0000
     0.0000   0.0000   0.0000   0.0000   0.0000   0.0000   0.0000   0.0000
     0.0000   0.0000   0.0000   0.0000   0.0000   0.0000   0.0000   0.0000
     0.0000   0.0000   0.0000   0.0000   0.0000   0.0000   0.0000   0.0000
     0.0000   0.0000   0.0000   0.0000   0.0000   0.0000   0.0000   0.0000
     0.0000   0.0000   0.0000   0.0000   0.0000   0.0000   0.0000   0.0000
     0.0000   0.0000   0.0000   0.0000   0.0000   0.0000   0.0000   0.0000
     0.0000   0.0000   0.0000   0.0000   0.0000   0.0000   0.0000   0.0000
     0.0000   0.0000   0.0000   0.0000   0.0000   0.0000   0.0000   0.0000
     0.0000   0.0000   0.0000   0.0000   0.0000   0.0000   0.0000   0.0000
     0.0000   0.0000   0.0000   0.0000   0.0000   0.0000   0.0000   0.0000
     0.0000   0.0000   0.0000   0.0000   0.0000   0.0000   0.0000   0.0000
     0.0000   0.0000   0.0000   0.0000   0.0000   0.0000   0.0000   0.0000
     0.0000   0.0000   0.0000   0.0000   0.0000   0.0000   0.0000   0.0000
     0.0000   0.0000   0.0000   0.0000   0.0000   0.0000   0.0000   0.0000
     0.0000   0.0000   0.0000   0.0000   0.0000   0.0000   0.0000   0.0000
     0.0000   0.0000   0.0000   0.0000   0.0000   0.0000   0.0000   0.0000
     0.0000   0.0000   0.0000   0.0000   0.0000   0.0000   0.0000   0.0000
     0.0000   0.0000   0.0000   0.0000   0.0000   0.0000   0.0000   0.0000

          k =-0.4000-0.2309 0.0000 ( 14770 PWs)   bands (ev):

   -66.6532 -41.0214 -40.8176 -40.7257 -18.4223 -18.1182 -11.6667 -10.6485
   -10.0038  -9.0546  -7.7740  -7.0178  -6.8568  -3.6414  -3.3214  -2.1783
    -1.5766   0.9357   1.7433   1.9640   2.8401   3.5903   4.3609   4.6921
     5.7390   5.8053   6.2548   7.2541   7.5133   8.6558   8.7919   9.1139
     9.7025  10.1970  10.5100  10.7573  11.0410  11.9448  12.7696  12.7871
    13.6096  13.9193  14.1820  14.5694  14.8206  15.3518  16.0972  16.2780
    16.3540  16.6407  16.8908  17.7728  17.9321  18.3958  18.5846  18.6312
    19.1597  19.2709  19.8908  19.9487  20.1919  20.2863  21.3218  21.5121
    21.5198  22.3025  22.4417  22.5552  22.8883  23.3401  23.3921  23.9699
    24.9956  25.5696  25.5726  25.6803  26.3309  26.7802  27.0000  27.1589
    27.4392  27.6361  27.7467  28.4588  28.5235  29.6740  30.0365  30.4992
    30.7498  30.7568  30.9533  30.9569  31.3574  31.5984  31.6363  32.0166
    32.2011  32.8927  33.0098  33.1660  33.1695  33.6656  33.8831  34.0784
    34.4162  34.6267  34.6276  35.0016  35.1997  35.8093  35.8326  35.9403
    36.3864  36.6563  37.5364  37.8201  37.8236  37.9209  38.0118  38.1327
    38.5078  38.6490  38.8115  39.0923  39.3731  39.9172  39.9272  40.0144
    40.1339  40.4759  40.5893  40.8382  41.0898  41.2063  41.3403  41.5749
    41.9752  41.9923  42.1082  42.4467  42.4540  42.8688  42.9240  43.0076
    43.3504  43.9754  44.1160  44.3316  44.3364  44.4727  44.4835  45.4242
    45.6105  46.0330  46.0598  46.0721  46.1716  46.5914  46.9398  47.1605
    47.2487  47.3694  47.6001  47.8912  47.9795  48.4833  48.5338  48.6848
    48.8902  48.9768  49.4703  49.5270  49.5763  50.0774  50.5650  50.6222
    50.7793  51.3549  51.4139  51.4969  51.8263  51.9906  52.0046  52.2457
    52.5768  52.6681  52.9800  52.9846  53.0637  53.4544  53.5142  53.5530
    54.4189  54.6919  54.7712  54.8476  55.1170  55.2037  55.5105  55.5266

     occupation numbers 
     1.0000   1.0000   1.0000   1.0000   1.0000   1.0000   1.0000   1.0000
     1.0000   1.0000   1.0000   1.0000   1.0000   0.0000   0.0000   0.0000
     0.0000   0.0000   0.0000   0.0000   0.0000   0.0000   0.0000   0.0000
     0.0000   0.0000   0.0000   0.0000   0.0000   0.0000   0.0000   0.0000
     0.0000   0.0000   0.0000   0.0000   0.0000   0.0000   0.0000   0.0000
     0.0000   0.0000   0.0000   0.0000   0.0000   0.0000   0.0000   0.0000
     0.0000   0.0000   0.0000   0.0000   0.0000   0.0000   0.0000   0.0000
     0.0000   0.0000   0.0000   0.0000   0.0000   0.0000   0.0000   0.0000
     0.0000   0.0000   0.0000   0.0000   0.0000   0.0000   0.0000   0.0000
     0.0000   0.0000   0.0000   0.0000   0.0000   0.0000   0.0000   0.0000
     0.0000   0.0000   0.0000   0.0000   0.0000   0.0000   0.0000   0.0000
     0.0000   0.0000   0.0000   0.0000   0.0000   0.0000   0.0000   0.0000
     0.0000   0.0000   0.0000   0.0000   0.0000   0.0000   0.0000   0.0000
     0.0000   0.0000   0.0000   0.0000   0.0000   0.0000   0.0000   0.0000
     0.0000   0.0000   0.0000   0.0000   0.0000   0.0000   0.0000   0.0000
     0.0000   0.0000   0.0000   0.0000   0.0000   0.0000   0.0000   0.0000
     0.0000   0.0000   0.0000   0.0000   0.0000   0.0000   0.0000   0.0000
     0.0000   0.0000   0.0000   0.0000   0.0000   0.0000   0.0000   0.0000
     0.0000   0.0000   0.0000   0.0000   0.0000   0.0000   0.0000   0.0000
     0.0000   0.0000   0.0000   0.0000   0.0000   0.0000   0.0000   0.0000
     0.0000   0.0000   0.0000   0.0000   0.0000   0.0000   0.0000   0.0000
     0.0000   0.0000   0.0000   0.0000   0.0000   0.0000   0.0000   0.0000
     0.0000   0.0000   0.0000   0.0000   0.0000   0.0000   0.0000   0.0000
     0.0000   0.0000   0.0000   0.0000   0.0000   0.0000   0.0000   0.0000
     0.0000   0.0000   0.0000   0.0000   0.0000   0.0000   0.0000   0.0000

          k =-0.5000-0.2887 0.0000 ( 14754 PWs)   bands (ev):

   -66.6490 -41.0607 -40.8092 -40.7349 -18.1758 -18.0277 -11.9001 -10.8904
   -10.1232  -9.1755  -7.8662  -6.8690  -6.6203  -3.5904  -3.0775  -2.0251
    -1.5035   0.1960   1.8572   2.3340   3.1010   3.7794   4.5699   5.1579
     5.3297   5.6767   5.8122   7.0085   7.3949   7.9106   8.4188   9.6496
    10.1649  10.2385  10.9081  11.3378  11.6956  12.0760  12.4293  13.0097
    13.5119  13.6577  14.0279  14.1224  14.6764  15.1870  15.8469  16.2068
    16.2068  16.7232  16.7371  17.0611  17.6570  17.7083  18.3175  18.5445
    18.7971  18.8882  19.2134  19.3523  20.3121  20.7528  21.1361  21.2776
    21.6888  22.1660  22.1820  22.3572  22.9701  23.9625  24.0457  24.5973
    25.1411  25.3382  25.6462  25.8612  26.4103  26.8055  26.8459  26.9700
    27.0379  27.4474  28.1101  28.7699  29.0239  29.6916  30.0357  30.2074
    30.2304  30.7306  30.9649  31.5673  31.7597  31.8920  32.4906  32.7943
    32.8304  32.8855  33.6869  33.9208  33.9336  34.1549  34.6895  34.9025
    35.0791  35.1426  35.2884  35.5036  35.5723  35.7216  36.0144  36.2135
    36.2923  36.6515  36.9989  37.2191  37.3283  37.6134  37.6669  37.9102
    38.0875  38.2705  38.7742  38.7983  38.9077  39.0226  39.5475  39.7992
    39.9559  40.5927  41.0748  41.1088  41.2156  41.3951  41.8488  42.0097
    42.1395  42.1458  42.5389  42.5492  43.1369  43.2536  43.4449  43.6671
    43.8665  44.0030  44.2778  44.5469  44.6885  45.0275  45.3539  45.5356
    45.6322  45.8741  46.0215  46.3243  46.4272  46.7329  46.8628  46.9855
    47.1154  47.1625  47.5406  47.7309  48.0777  48.4401  48.5871  48.9315
    48.9635  49.2899  49.4138  49.4635  49.5668  49.7314  49.7458  49.8194
    50.8834  50.9090  51.0412  51.1215  51.3121  51.4913  51.6594  51.6616
    51.8376  52.2396  52.4185  52.8628  52.8935  52.9595  53.3105  53.4760
    53.9603  54.3218  54.6899  54.7361  54.8535  54.9281  54.9743  54.9930

     occupation numbers 
     1.0000   1.0000   1.0000   1.0000   1.0000   1.0000   1.0000   1.0000
     1.0000   1.0000   1.0000   1.0000   1.0000   0.0000   0.0000   0.0000
     0.0000   0.0000   0.0000   0.0000   0.0000   0.0000   0.0000   0.0000
     0.0000   0.0000   0.0000   0.0000   0.0000   0.0000   0.0000   0.0000
     0.0000   0.0000   0.0000   0.0000   0.0000   0.0000   0.0000   0.0000
     0.0000   0.0000   0.0000   0.0000   0.0000   0.0000   0.0000   0.0000
     0.0000   0.0000   0.0000   0.0000   0.0000   0.0000   0.0000   0.0000
     0.0000   0.0000   0.0000   0.0000   0.0000   0.0000   0.0000   0.0000
     0.0000   0.0000   0.0000   0.0000   0.0000   0.0000   0.0000   0.0000
     0.0000   0.0000   0.0000   0.0000   0.0000   0.0000   0.0000   0.0000
     0.0000   0.0000   0.0000   0.0000   0.0000   0.0000   0.0000   0.0000
     0.0000   0.0000   0.0000   0.0000   0.0000   0.0000   0.0000   0.0000
     0.0000   0.0000   0.0000   0.0000   0.0000   0.0000   0.0000   0.0000
     0.0000   0.0000   0.0000   0.0000   0.0000   0.0000   0.0000   0.0000
     0.0000   0.0000   0.0000   0.0000   0.0000   0.0000   0.0000   0.0000
     0.0000   0.0000   0.0000   0.0000   0.0000   0.0000   0.0000   0.0000
     0.0000   0.0000   0.0000   0.0000   0.0000   0.0000   0.0000   0.0000
     0.0000   0.0000   0.0000   0.0000   0.0000   0.0000   0.0000   0.0000
     0.0000   0.0000   0.0000   0.0000   0.0000   0.0000   0.0000   0.0000
     0.0000   0.0000   0.0000   0.0000   0.0000   0.0000   0.0000   0.0000
     0.0000   0.0000   0.0000   0.0000   0.0000   0.0000   0.0000   0.0000
     0.0000   0.0000   0.0000   0.0000   0.0000   0.0000   0.0000   0.0000
     0.0000   0.0000   0.0000   0.0000   0.0000   0.0000   0.0000   0.0000
     0.0000   0.0000   0.0000   0.0000   0.0000   0.0000   0.0000   0.0000
     0.0000   0.0000   0.0000   0.0000   0.0000   0.0000   0.0000   0.0000

     highest occupied, lowest unoccupied level (ev):    -5.9734   -4.1909

     Writing all to output data dir ./tmp/MoS2.save/ :
     XML data file, pseudopotentials, collected wavefunctions

     init_run     :      1.05s CPU      1.15s WALL (       1 calls)
     electrons    :    192.12s CPU    193.07s WALL (       1 calls)

     Called by init_run:
     wfcinit      :      0.00s CPU      0.00s WALL (       1 calls)
     wfcinit:atom :      0.01s CPU      0.01s WALL (      16 calls)
     wfcinit:wfcr :      4.77s CPU      4.86s WALL (      16 calls)
     potinit      :      0.08s CPU      0.11s WALL (       1 calls)
     hinit0       :      0.65s CPU      0.71s WALL (       1 calls)

     Called by electrons:
     c_bands      :    192.07s CPU    192.99s WALL (       1 calls)
     v_of_rho     :      0.03s CPU      0.03s WALL (       1 calls)
     v_h          :      0.00s CPU      0.00s WALL (       1 calls)
     v_xc         :      0.03s CPU      0.03s WALL (       1 calls)

     Called by c_bands:
     init_us_2    :      0.02s CPU      0.02s WALL (      16 calls)
     cegterg      :    165.12s CPU    165.82s WALL (      32 calls)

     Called by sum_band:

     Called by *egterg:
     cdiaghg      :     62.59s CPU     62.75s WALL (     590 calls)
     cegterg:over :     19.09s CPU     19.17s WALL (     574 calls)
     cegterg:upda :     11.19s CPU     11.26s WALL (     574 calls)
     cegterg:last :     20.14s CPU     20.18s WALL (     258 calls)
     cdiaghg:chol :      1.04s CPU      1.04s WALL (     590 calls)
     cdiaghg:inve :      0.75s CPU      0.75s WALL (     590 calls)
     cdiaghg:para :      7.61s CPU      7.74s WALL (    1180 calls)
     h_psi        :     54.25s CPU     54.64s WALL (     622 calls)
     g_psi        :      0.33s CPU      0.34s WALL (     574 calls)

     Called by h_psi:
     h_psi:calbec :      1.74s CPU      1.77s WALL (     622 calls)
     vloc_psi     :     50.75s CPU     51.07s WALL (     622 calls)
                                        0.00s GPU  (     622 calls)
     add_vuspsi   :      1.58s CPU      1.58s WALL (     622 calls)

     General routines
     calbec       :      1.73s CPU      1.77s WALL (     622 calls)
     fft          :      0.60s CPU      0.65s WALL (      11 calls)
     fftw         :     45.80s CPU     46.09s WALL (  108346 calls)
     davcio       :      0.01s CPU      0.12s WALL (      32 calls)

     Parallel routines

     PWSCF        :   3m19.64s CPU   3m28.12s WALL


   This run was terminated on:  14:27:41  19Mar2026            

=------------------------------------------------------------------------------=
   JOB DONE.
=------------------------------------------------------------------------------=
