&input
    fildyn='MoS2.dyn.xml'
    zasr='crystal', 
    flfrc='MoS2.fc'
/
