&inputph
    verbosity='high'
    prefix='MoS2',
    fildyn='MoS2.dyn.xml',
    fildvscf='dvscf',
    outdir='.',
    electron_phonon='dvscf'
    tr2_ph=1.0d-15,
    trans=.true.,
    epsil=.false.,
    ldisp=.false.,
    qplot = .true.,
    nmix_ph=10,
    recover=.true.,
/
7
         0.000000000   0.000000000   0.000000000 1
         0.000000000  -0.192450090   0.000000000 1
         0.000000000  -0.384900179   0.000000000 1
         0.000000000   0.577350269   0.000000000 1
        -0.166666667  -0.288675135   0.000000000 1
        -0.166666667  -0.481125224   0.000000000 1
        -0.333333333  -0.577350269   0.000000000 1
