&input
  fildyn = 'MoS2.dyn1',  ! Your ph.x output file at Gamma
  asr = 'crystal',            ! The magic fix for 2D materials
  filout = 'MoS2_forced.dyn1'
/
