
     Program PWSCF v.7.5 starts on 13Mar2026 at  1:12:56 
        Git branch: HEAD
        Last git commit: 770a0b2d12928a67048e2f3da8d10d057e52179e
        Last git commit date: Tue Aug 19 09:57:12 2025 +0000
        Last git commit subject: Merge branch 'QE-7.5-RC' into 'master'

     This program is part of the open-source Quantum ESPRESSO suite
     for quantum simulation of materials; please cite
         "P. Giannozzi et al., J. Phys.:Condens. Matter 21 395502 (2009);
         "P. Giannozzi et al., J. Phys.:Condens. Matter 29 465901 (2017);
         "P. Giannozzi et al., J. Chem. Phys. 152 154105 (2020);
          URL http://www.quantum-espresso.org", 
     in publications or presentations arising from this work. More details at
     http://www.quantum-espresso.org/quote

     Parallel version (MPI), running on    64 processors

     MPI processes distributed on     4 nodes
     243441 MiB available memory on the printing compute node when the environment starts

     Waiting for input...
     Reading input from standard input

     Current dimensions of program PWSCF are:
     Max number of different atomic species (ntypx) = 10
     Max number of k-points (npk) =  40000
     Max angular momentum in pseudopotentials (lmaxx) =  4

     Atomic positions and unit cell read from directory:
     ./tmp/MoS2.save/


     R & G space division:  proc/nbgrp/npool/nimage =      64
     Subspace diagonalization in iterative solution of the eigenvalue problem:
     one sub-group per band group will be used
     custom distributed-memory algorithm (size of sub-group:  2*  2 procs)


     Parallelization info
     --------------------
     sticks:   dense  smooth     PW     G-vecs:    dense   smooth      PW
     Min          12      12      3                 1822     1822     275
     Max          13      13      4                 1852     1852     314
     Sum         769     769    223               117923   117923   18417

     Using Slab Decomposition



     bravais-lattice index     =            4
     lattice parameter (alat)  =       5.9358  a.u.
     unit-cell volume          =    1220.5221 (a.u.)^3
     number of atoms/cell      =            3
     number of atomic types    =            2
     number of electrons       =        26.00
     number of Kohn-Sham states=          200
     kinetic-energy cutoff     =      80.0000  Ry
     charge density cutoff     =     320.0000  Ry
     Exchange-correlation= PBESOL
                           (   1   4  10   8   0   0   0)

     celldm(1)=   5.935776  celldm(2)=   0.000000  celldm(3)=   6.738799
     celldm(4)=   0.000000  celldm(5)=   0.000000  celldm(6)=   0.000000

     crystal axes: (cart. coord. in units of alat)
               a(1) = (   1.000000   0.000000   0.000000 )  
               a(2) = (  -0.500000   0.866025   0.000000 )  
               a(3) = (   0.000000   0.000000   6.738799 )  

     reciprocal axes: (cart. coord. in units 2 pi/alat)
               b(1) = (  1.000000  0.577350 -0.000000 )  
               b(2) = (  0.000000  1.154701  0.000000 )  
               b(3) = (  0.000000 -0.000000  0.148394 )  


     PseudoPot. # 1 for Mo read from file:
     ../pseudo/Mo.pbesol.dojo.upf
     MD5 check sum: c40353276b9086539cda6b9e5a66907b
     Pseudo is Norm-conserving + core correction, Zval = 14.0
     Generated using ONCVPSP code by D. R. Hamann
     Using radial grid of 1640 points,  6 beta functions with: 
                l(1) =   0
                l(2) =   0
                l(3) =   1
                l(4) =   1
                l(5) =   2
                l(6) =   2

     PseudoPot. # 2 for S  read from file:
     ../pseudo/S.pbesol.dojo.upf
     MD5 check sum: 501737efeeef1fb1c631cda521d4e019
     Pseudo is Norm-conserving + core correction, Zval =  6.0
     Generated using ONCVPSP code by D. R. Hamann
     Using radial grid of 1146 points,  6 beta functions with: 
                l(1) =   0
                l(2) =   0
                l(3) =   1
                l(4) =   1
                l(5) =   2
                l(6) =   2

     atomic species   valence    mass     pseudopotential
     Mo               14.00    95.95000     Mo( 1.00)
     S                 6.00    32.06500     S ( 1.00)

     12 Sym. Ops. (no inversion) found


                                    s                        frac. trans.

      isym =  1     identity                                     

 cryst.   s( 1) = (     1          0          0      )
                  (     0          1          0      )
                  (     0          0          1      )

 cart.    s( 1) = (  1.0000000  0.0000000  0.0000000 )
                  (  0.0000000  1.0000000  0.0000000 )
                  (  0.0000000  0.0000000  1.0000000 )


      isym =  2     180 deg rotation - cart. axis [0,1,0]        

 cryst.   s( 2) = (    -1          0          0      )
                  (     1          1          0      )
                  (     0          0         -1      )

 cart.    s( 2) = ( -1.0000000  0.0000000  0.0000000 )
                  (  0.0000000  1.0000000  0.0000000 )
                  (  0.0000000  0.0000000 -1.0000000 )


      isym =  3     120 deg rotation - cryst. axis [0,0,1]       

 cryst.   s( 3) = (     0          1          0      )
                  (    -1         -1          0      )
                  (     0          0          1      )

 cart.    s( 3) = ( -0.5000000 -0.8660254  0.0000000 )
                  (  0.8660254 -0.5000000  0.0000000 )
                  (  0.0000000  0.0000000  1.0000000 )


      isym =  4     120 deg rotation - cryst. axis [0,0,-1]      

 cryst.   s( 4) = (    -1         -1          0      )
                  (     1          0          0      )
                  (     0          0          1      )

 cart.    s( 4) = ( -0.5000000  0.8660254  0.0000000 )
                  ( -0.8660254 -0.5000000  0.0000000 )
                  (  0.0000000  0.0000000  1.0000000 )


      isym =  5     180 deg rotation - cryst. axis [1,-1,0]      

 cryst.   s( 5) = (     0         -1          0      )
                  (    -1          0          0      )
                  (     0          0         -1      )

 cart.    s( 5) = (  0.5000000 -0.8660254  0.0000000 )
                  ( -0.8660254 -0.5000000  0.0000000 )
                  (  0.0000000  0.0000000 -1.0000000 )


      isym =  6     180 deg rotation - cryst. axis [2,1,0]       

 cryst.   s( 6) = (     1          1          0      )
                  (     0         -1          0      )
                  (     0          0         -1      )

 cart.    s( 6) = (  0.5000000  0.8660254  0.0000000 )
                  (  0.8660254 -0.5000000  0.0000000 )
                  (  0.0000000  0.0000000 -1.0000000 )


      isym =  7     inv. 180 deg rotation - cart. axis [0,0,1]   

 cryst.   s( 7) = (     1          0          0      )
                  (     0          1          0      )
                  (     0          0         -1      )

 cart.    s( 7) = (  1.0000000  0.0000000  0.0000000 )
                  (  0.0000000  1.0000000  0.0000000 )
                  (  0.0000000  0.0000000 -1.0000000 )


      isym =  8     inv. 180 deg rotation - cart. axis [1,0,0]   

 cryst.   s( 8) = (    -1          0          0      )
                  (     1          1          0      )
                  (     0          0          1      )

 cart.    s( 8) = ( -1.0000000  0.0000000  0.0000000 )
                  (  0.0000000  1.0000000  0.0000000 )
                  (  0.0000000  0.0000000  1.0000000 )


      isym =  9     inv.  60 deg rotation - cryst. axis [0,0,1]  

 cryst.   s( 9) = (    -1         -1          0      )
                  (     1          0          0      )
                  (     0          0         -1      )

 cart.    s( 9) = ( -0.5000000  0.8660254  0.0000000 )
                  ( -0.8660254 -0.5000000  0.0000000 )
                  (  0.0000000  0.0000000 -1.0000000 )


      isym = 10     inv.  60 deg rotation - cryst. axis [0,0,-1] 

 cryst.   s(10) = (     0          1          0      )
                  (    -1         -1          0      )
                  (     0          0         -1      )

 cart.    s(10) = ( -0.5000000 -0.8660254  0.0000000 )
                  (  0.8660254 -0.5000000  0.0000000 )
                  (  0.0000000  0.0000000 -1.0000000 )


      isym = 11     inv. 180 deg rotation - cryst. axis [0,1,0]  

 cryst.   s(11) = (     1          1          0      )
                  (     0         -1          0      )
                  (     0          0          1      )

 cart.    s(11) = (  0.5000000  0.8660254  0.0000000 )
                  (  0.8660254 -0.5000000  0.0000000 )
                  (  0.0000000  0.0000000  1.0000000 )


      isym = 12     inv. 180 deg rotation - cryst. axis [1,1,0]  

 cryst.   s(12) = (     0         -1          0      )
                  (    -1          0          0      )
                  (     0          0          1      )

 cart.    s(12) = (  0.5000000 -0.8660254  0.0000000 )
                  ( -0.8660254 -0.5000000  0.0000000 )
                  (  0.0000000  0.0000000  1.0000000 )


     point group D_3h (-62m)
     there are  6 classes
     the character table:

       E     2C3   3C2   s_h   2S3   3s_v 
A'_1   1.00  1.00  1.00  1.00  1.00  1.00
A'_2   1.00  1.00 -1.00  1.00  1.00 -1.00
E'     2.00 -1.00  0.00  2.00 -1.00  0.00
A''1   1.00  1.00  1.00 -1.00 -1.00 -1.00
A''2   1.00  1.00 -1.00 -1.00 -1.00  1.00
E''    2.00 -1.00  0.00 -2.00  1.00  0.00

     the symmetry operations in each class and the name of the first element:

     E        1
          identity                                               
     2C3      3    4
          120 deg rotation - cryst. axis [0,0,1]                 
     3C2      2    6    5
          180 deg rotation - cart. axis [0,1,0]                  
     s_h      7
          inv. 180 deg rotation - cart. axis [0,0,1]             
     2S3      9   10
          inv.  60 deg rotation - cryst. axis [0,0,1]            
     3s_v     8   11   12
          inv. 180 deg rotation - cart. axis [1,0,0]             

   Cartesian axes

     site n.     atom                  positions (alat units)
         1        Mo     tau(   1) = (   0.0000000   0.5773502   3.3693993  )
         2        S      tau(   2) = (   0.5000000   0.2886751   3.8653200  )
         3        S      tau(   3) = (   0.5000000   0.2886751   2.8734787  )

     Fixed atoms
     site n.  direction
         1    0   0   0
         2    0   0   1
         3    0   0   1

   Crystallographic axes

     site n.     atom                  positions (cryst. coord.)
         1        Mo     tau(   1) = (  0.3333333  0.6666666  0.5000000  )
         2        S      tau(   2) = (  0.6666667  0.3333333  0.5735918  )
         3        S      tau(   3) = (  0.6666667  0.3333333  0.4264082  )

     number of k points=     7
                       cart. coord. in units 2pi/alat
        k(    1) = (   0.0000000   0.0000000   0.0000000), wk =   0.0555556
        k(    2) = (   0.0000000   0.1924501   0.0000000), wk =   0.3333333
        k(    3) = (   0.0000000   0.3849002   0.0000000), wk =   0.3333333
        k(    4) = (   0.0000000  -0.5773503   0.0000000), wk =   0.1666667
        k(    5) = (   0.1666667   0.2886751   0.0000000), wk =   0.3333333
        k(    6) = (   0.1666667   0.4811252   0.0000000), wk =   0.6666667
        k(    7) = (   0.3333333   0.5773503   0.0000000), wk =   0.1111111

                       cryst. coord.
        k(    1) = (   0.0000000   0.0000000   0.0000000), wk =   0.0555556
        k(    2) = (   0.0000000   0.1666667   0.0000000), wk =   0.3333333
        k(    3) = (   0.0000000   0.3333333   0.0000000), wk =   0.3333333
        k(    4) = (   0.0000000  -0.5000000   0.0000000), wk =   0.1666667
        k(    5) = (   0.1666667   0.1666667   0.0000000), wk =   0.3333333
        k(    6) = (   0.1666667   0.3333333   0.0000000), wk =   0.6666667
        k(    7) = (   0.3333333   0.3333333   0.0000000), wk =   0.1111111

     Dense  grid:   117923 G-vectors     FFT dimensions: (  36,  36, 240)

     Dynamical RAM for                 wfc:       0.70 MB

     Dynamical RAM for     wfc (w. buffer):       0.70 MB

     Dynamical RAM for           str. fact:       0.06 MB

     Dynamical RAM for           local pot:       0.00 MB

     Dynamical RAM for          nlocal pot:       0.19 MB

     Dynamical RAM for                qrad:       2.87 MB

     Dynamical RAM for          rho,v,vnew:       0.20 MB

     Dynamical RAM for           G-vectors:       0.12 MB

     Dynamical RAM for          h,s,v(r/c):       1.83 MB

     Dynamical RAM for          <psi|beta>:       0.16 MB

     Dynamical RAM for                 psi:       1.40 MB

     Dynamical RAM for                hpsi:       1.40 MB

     Dynamical RAM for      wfcinit/wfcrot:       2.32 MB

     Estimated static dynamical RAM per process >       4.42 MB

     Estimated max dynamical RAM per process >       9.23 MB

     Estimated total dynamical RAM >     590.58 MB
 ----2D----2D----2D----2D----2D----2D----2D----2D----2D----2D----2D----2D
  The code is running with the 2D cutoff
  Please refer to:
  Sohier, T., Calandra, M., & Mauri, F. (2017), 
  Density functional perturbation theory for gated two-dimensional heterostructures:
  Theoretical developments and application to flexural phonons in graphene.
  Physical Review B, 96(7), 75448. https://doi.org/10.1103/PhysRevB.96.075448
 ----2D----2D----2D----2D----2D----2D----2D----2D----2D----2D----2D----2D

     The potential is recalculated from file :
     ./tmp/MoS2.save/charge-density

     Starting wfcs are   18 randomized atomic wfcs +  182 random wfcs

     Band Structure Calculation
     Davidson diagonalization with overlap

     Computing kpt #:     1  of     7
     total cpu time spent up to now is       16.0 secs

     Computing kpt #:     2  of     7
     total cpu time spent up to now is       28.1 secs

     Computing kpt #:     3  of     7
     total cpu time spent up to now is       40.8 secs

     Computing kpt #:     4  of     7
     total cpu time spent up to now is       52.9 secs

     Computing kpt #:     5  of     7
     total cpu time spent up to now is       66.8 secs

     Computing kpt #:     6  of     7
     total cpu time spent up to now is       79.2 secs

     Computing kpt #:     7  of     7
     total cpu time spent up to now is       91.3 secs

     ethr =  1.00E-13,  avg # of iterations = 57.9

     total cpu time spent up to now is       91.3 secs

     End of band structure calculation

          k = 0.0000 0.0000 0.0000 ( 14855 PWs)   bands (ev):

   -66.6809 -40.8886 -40.6217 -40.6217 -20.1928 -18.8275 -11.7396  -8.5876
    -8.5876  -7.8081  -7.4283  -7.4283  -6.0332  -3.0689  -3.0689  -2.7926
    -2.7926  -0.3341  -0.1589   0.4703   2.1861   2.3413   3.1577   4.8577
     4.8577   5.3486   6.0006   6.8782   6.8782   7.1820   9.4658  10.1159
    10.2029  10.2029  10.5333  10.5333  10.6390  12.3465  13.9863  14.2336
    15.2577  16.2720  17.2842  17.2842  18.9029  18.9029  18.9134  19.2047
    19.6170  19.6170  19.6253  19.7518  19.7681  19.7681  20.2905  20.3343
    20.6191  20.6191  21.5393  21.5393  21.7497  21.9396  21.9643  21.9643
    22.2757  22.2757  22.2995  22.7266  22.7266  22.9134  23.7420  24.1812
    24.4550  24.4550  24.4616  24.4616  24.7599  25.1737  25.5660  25.5660
    25.6930  25.6930  25.7808  26.7413  27.3466  27.3466  27.8618  27.8618
    27.9218  28.6939  28.7747  29.0224  29.0224  29.6738  29.6738  30.1007
    30.1076  30.9237  30.9237  31.1195  31.4936  31.4936  31.6147  31.6147
    31.7889  32.3250  33.2678  33.3560  33.9028  33.9028  33.9276  33.9276
    34.6421  34.7035  35.5740  35.5740  35.6233  35.6233  36.2138  36.7733
    36.7733  37.0600  37.3814  37.4588  37.4588  37.8508  38.2898  38.6875
    38.6875  38.8312  38.8312  38.9665  39.8763  39.8763  40.7040  40.9205
    40.9205  41.6169  41.6169  41.6990  41.7994  41.9428  41.9428  42.2903
    42.6772  42.8083  42.8083  44.7630  44.8051  44.9383  44.9383  45.6323
    45.7273  45.7273  46.4300  46.4300  46.7150  46.8706  47.4089  47.4217
    47.4217  48.5701  48.7742  49.1434  49.1434  50.2113  50.2113  50.8845
    50.8845  50.9726  51.6358  52.2066  52.2364  52.2364  52.5171  52.5171
    52.9537  52.9537  53.3010  53.9793  53.9793  54.2075  54.2144  55.0831
    55.4143  55.6636  55.8633  55.8633  57.0059  57.0059  57.6640  57.6870
    57.6870  58.0551  58.0551  58.8641  58.8933  59.0365  59.0767  59.1029

     occupation numbers 
     1.0000   1.0000   1.0000   1.0000   1.0000   1.0000   1.0000   1.0000
     1.0000   1.0000   1.0000   1.0000   1.0000   0.0000   0.0000   0.0000
     0.0000   0.0000   0.0000   0.0000   0.0000   0.0000   0.0000   0.0000
     0.0000   0.0000   0.0000   0.0000   0.0000   0.0000   0.0000   0.0000
     0.0000   0.0000   0.0000   0.0000   0.0000   0.0000   0.0000   0.0000
     0.0000   0.0000   0.0000   0.0000   0.0000   0.0000   0.0000   0.0000
     0.0000   0.0000   0.0000   0.0000   0.0000   0.0000   0.0000   0.0000
     0.0000   0.0000   0.0000   0.0000   0.0000   0.0000   0.0000   0.0000
     0.0000   0.0000   0.0000   0.0000   0.0000   0.0000   0.0000   0.0000
     0.0000   0.0000   0.0000   0.0000   0.0000   0.0000   0.0000   0.0000
     0.0000   0.0000   0.0000   0.0000   0.0000   0.0000   0.0000   0.0000
     0.0000   0.0000   0.0000   0.0000   0.0000   0.0000   0.0000   0.0000
     0.0000   0.0000   0.0000   0.0000   0.0000   0.0000   0.0000   0.0000
     0.0000   0.0000   0.0000   0.0000   0.0000   0.0000   0.0000   0.0000
     0.0000   0.0000   0.0000   0.0000   0.0000   0.0000   0.0000   0.0000
     0.0000   0.0000   0.0000   0.0000   0.0000   0.0000   0.0000   0.0000
     0.0000   0.0000   0.0000   0.0000   0.0000   0.0000   0.0000   0.0000
     0.0000   0.0000   0.0000   0.0000   0.0000   0.0000   0.0000   0.0000
     0.0000   0.0000   0.0000   0.0000   0.0000   0.0000   0.0000   0.0000
     0.0000   0.0000   0.0000   0.0000   0.0000   0.0000   0.0000   0.0000
     0.0000   0.0000   0.0000   0.0000   0.0000   0.0000   0.0000   0.0000
     0.0000   0.0000   0.0000   0.0000   0.0000   0.0000   0.0000   0.0000
     0.0000   0.0000   0.0000   0.0000   0.0000   0.0000   0.0000   0.0000
     0.0000   0.0000   0.0000   0.0000   0.0000   0.0000   0.0000   0.0000
     0.0000   0.0000   0.0000   0.0000   0.0000   0.0000   0.0000   0.0000

          k = 0.0000 0.1925 0.0000 ( 14809 PWs)   bands (ev):

   -66.6696 -40.8666 -40.7324 -40.6468 -19.7712 -18.6560 -11.3083  -9.3705
    -8.9594  -8.1525  -8.0066  -7.0279  -6.2960  -3.5982  -3.2814  -3.2062
    -2.4486   0.2844   0.3798   1.9835   2.7685   2.8166   3.9401   4.1571
     5.4133   5.9190   6.1072   6.4942   6.7297   7.1238   8.4865   9.2378
     9.2843  10.8629  10.9561  11.0846  13.2642  13.5461  13.7852  13.8286
    14.9916  15.6865  15.9393  16.2496  16.3569  16.4070  16.8254  16.9549
    17.2540  17.6484  18.0950  18.5076  18.8186  19.2793  19.3045  19.4748
    19.9780  20.1197  20.1681  20.5366  21.8840  22.0223  22.1077  22.4179
    23.1578  23.3628  23.3741  23.9082  23.9406  24.2539  24.4254  24.5608
    24.9426  25.3297  25.3412  25.4741  26.0450  26.1108  26.1518  26.1653
    26.7643  27.0175  27.2936  27.5762  27.7620  27.9007  28.0934  28.7021
    28.8011  28.8092  29.0875  29.3048  29.3829  29.6212  29.6781  30.0830
    30.4727  30.5412  31.1046  31.5047  31.5599  31.8958  31.9199  32.0336
    32.5464  33.1568  33.3596  33.4035  33.5251  33.8643  34.3296  34.8162
    34.8345  34.9622  35.0870  35.4869  35.9502  36.3658  36.7131  36.7676
    37.2015  37.2121  37.4042  37.6860  38.0750  38.7981  38.8766  39.2089
    39.3229  39.5000  40.0693  40.1615  40.9789  41.1387  41.1421  41.4823
    41.6299  41.7394  42.1225  42.1410  42.4603  43.0174  43.0870  43.2924
    43.8559  43.8811  44.0357  44.7592  44.8186  44.9028  45.3409  45.3463
    45.9174  45.9981  46.1287  46.5702  46.8324  47.0595  47.2958  47.4116
    48.0332  48.1383  48.6383  48.9203  49.2076  49.6751  50.2658  50.3120
    50.3143  50.6031  50.8130  50.8867  50.9746  51.2903  51.4942  51.5719
    52.0615  52.1498  52.5677  52.9010  53.0945  53.1632  53.2390  53.3969
    53.4310  54.2075  54.2424  54.6736  55.1455  55.2001  55.2859  55.4036
    55.5960  55.8643  56.2700  56.4297  56.6525  56.6869  56.7722  57.2475

     occupation numbers 
     1.0000   1.0000   1.0000   1.0000   1.0000   1.0000   1.0000   1.0000
     1.0000   1.0000   1.0000   1.0000   1.0000   0.0000   0.0000   0.0000
     0.0000   0.0000   0.0000   0.0000   0.0000   0.0000   0.0000   0.0000
     0.0000   0.0000   0.0000   0.0000   0.0000   0.0000   0.0000   0.0000
     0.0000   0.0000   0.0000   0.0000   0.0000   0.0000   0.0000   0.0000
     0.0000   0.0000   0.0000   0.0000   0.0000   0.0000   0.0000   0.0000
     0.0000   0.0000   0.0000   0.0000   0.0000   0.0000   0.0000   0.0000
     0.0000   0.0000   0.0000   0.0000   0.0000   0.0000   0.0000   0.0000
     0.0000   0.0000   0.0000   0.0000   0.0000   0.0000   0.0000   0.0000
     0.0000   0.0000   0.0000   0.0000   0.0000   0.0000   0.0000   0.0000
     0.0000   0.0000   0.0000   0.0000   0.0000   0.0000   0.0000   0.0000
     0.0000   0.0000   0.0000   0.0000   0.0000   0.0000   0.0000   0.0000
     0.0000   0.0000   0.0000   0.0000   0.0000   0.0000   0.0000   0.0000
     0.0000   0.0000   0.0000   0.0000   0.0000   0.0000   0.0000   0.0000
     0.0000   0.0000   0.0000   0.0000   0.0000   0.0000   0.0000   0.0000
     0.0000   0.0000   0.0000   0.0000   0.0000   0.0000   0.0000   0.0000
     0.0000   0.0000   0.0000   0.0000   0.0000   0.0000   0.0000   0.0000
     0.0000   0.0000   0.0000   0.0000   0.0000   0.0000   0.0000   0.0000
     0.0000   0.0000   0.0000   0.0000   0.0000   0.0000   0.0000   0.0000
     0.0000   0.0000   0.0000   0.0000   0.0000   0.0000   0.0000   0.0000
     0.0000   0.0000   0.0000   0.0000   0.0000   0.0000   0.0000   0.0000
     0.0000   0.0000   0.0000   0.0000   0.0000   0.0000   0.0000   0.0000
     0.0000   0.0000   0.0000   0.0000   0.0000   0.0000   0.0000   0.0000
     0.0000   0.0000   0.0000   0.0000   0.0000   0.0000   0.0000   0.0000
     0.0000   0.0000   0.0000   0.0000   0.0000   0.0000   0.0000   0.0000

          k = 0.0000 0.3849 0.0000 ( 14740 PWs)   bands (ev):

   -66.6469 -40.9483 -40.8222 -40.6966 -18.7854 -18.2629 -11.3558 -10.2744
    -9.9134  -8.8386  -7.6116  -7.2565  -6.9912  -3.6251  -3.5637  -2.4577
    -1.6989   1.4224   1.5911   1.9782   2.5700   3.2310   4.2262   4.5478
     5.6387   6.2103   6.5410   7.2385   7.8107   8.4488   9.0661   9.1727
     9.4493   9.5016   9.7916  11.5265  11.6274  11.7814  12.4917  12.8064
    13.8655  14.5308  14.6825  15.4468  15.5424  15.6718  15.9036  16.4679
    16.7854  16.8838  17.1454  17.8781  18.0538  18.6516  18.6732  18.9490
    19.3740  19.6015  19.7985  20.3987  21.0475  21.1649  21.2645  21.3215
    22.1778  22.3394  22.4580  22.6574  23.3044  23.3398  23.8778  24.6716
    25.0088  25.4513  25.4976  25.5067  26.2893  26.7388  26.8616  27.3347
    27.5419  27.5648  27.8227  28.5610  28.7946  28.8751  29.3656  29.4230
    29.5601  30.3281  30.8142  30.9487  31.1665  31.1902  31.2328  31.9119
    32.1463  32.1726  32.3401  32.6431  32.7945  32.8939  33.9534  33.9684
    34.0418  34.3047  34.5619  34.8305  35.4332  35.4520  35.7614  35.9245
    35.9350  36.3149  36.3212  36.9294  37.3710  37.4960  37.5443  37.7285
    37.9254  38.6820  38.9151  39.2467  39.2865  39.3521  39.6857  39.8773
    40.1934  40.3254  40.8166  41.1523  41.3338  41.4409  41.8191  41.9111
    42.0839  42.5200  42.7436  43.0463  43.0547  43.0838  43.1959  43.6401
    43.7805  43.9607  44.0576  44.1786  44.6008  44.7467  44.9023  45.1954
    45.7454  45.8863  46.1494  46.2673  46.3347  46.6277  46.7584  46.9766
    47.1685  47.5773  47.7211  47.8728  48.0140  48.3810  48.5259  49.3648
    49.3806  49.4363  49.5150  49.6330  49.7684  49.9918  50.1466  50.2660
    50.5067  51.0940  51.7839  51.7939  51.9446  52.2155  52.4712  53.2648
    53.3341  53.4988  53.6674  53.8256  53.8537  54.4045  54.4484  54.4530
    54.5716  54.8382  54.8840  55.5114  55.6045  55.6304  55.7385  56.2114

     occupation numbers 
     1.0000   1.0000   1.0000   1.0000   1.0000   1.0000   1.0000   1.0000
     1.0000   1.0000   1.0000   1.0000   1.0000   0.0000   0.0000   0.0000
     0.0000   0.0000   0.0000   0.0000   0.0000   0.0000   0.0000   0.0000
     0.0000   0.0000   0.0000   0.0000   0.0000   0.0000   0.0000   0.0000
     0.0000   0.0000   0.0000   0.0000   0.0000   0.0000   0.0000   0.0000
     0.0000   0.0000   0.0000   0.0000   0.0000   0.0000   0.0000   0.0000
     0.0000   0.0000   0.0000   0.0000   0.0000   0.0000   0.0000   0.0000
     0.0000   0.0000   0.0000   0.0000   0.0000   0.0000   0.0000   0.0000
     0.0000   0.0000   0.0000   0.0000   0.0000   0.0000   0.0000   0.0000
     0.0000   0.0000   0.0000   0.0000   0.0000   0.0000   0.0000   0.0000
     0.0000   0.0000   0.0000   0.0000   0.0000   0.0000   0.0000   0.0000
     0.0000   0.0000   0.0000   0.0000   0.0000   0.0000   0.0000   0.0000
     0.0000   0.0000   0.0000   0.0000   0.0000   0.0000   0.0000   0.0000
     0.0000   0.0000   0.0000   0.0000   0.0000   0.0000   0.0000   0.0000
     0.0000   0.0000   0.0000   0.0000   0.0000   0.0000   0.0000   0.0000
     0.0000   0.0000   0.0000   0.0000   0.0000   0.0000   0.0000   0.0000
     0.0000   0.0000   0.0000   0.0000   0.0000   0.0000   0.0000   0.0000
     0.0000   0.0000   0.0000   0.0000   0.0000   0.0000   0.0000   0.0000
     0.0000   0.0000   0.0000   0.0000   0.0000   0.0000   0.0000   0.0000
     0.0000   0.0000   0.0000   0.0000   0.0000   0.0000   0.0000   0.0000
     0.0000   0.0000   0.0000   0.0000   0.0000   0.0000   0.0000   0.0000
     0.0000   0.0000   0.0000   0.0000   0.0000   0.0000   0.0000   0.0000
     0.0000   0.0000   0.0000   0.0000   0.0000   0.0000   0.0000   0.0000
     0.0000   0.0000   0.0000   0.0000   0.0000   0.0000   0.0000   0.0000
     0.0000   0.0000   0.0000   0.0000   0.0000   0.0000   0.0000   0.0000

          k = 0.0000-0.5774 0.0000 ( 14702 PWs)   bands (ev):

   -66.6355 -41.0537 -40.7999 -40.7213 -18.1690 -18.0313 -11.9159 -10.9080
   -10.1302  -9.1692  -7.8771  -6.8477  -6.6187  -3.5606  -3.0520  -2.0117
    -1.4843   0.2127   1.8622   2.3483   3.1133   3.7850   4.5885   5.1776
     5.3632   5.6919   5.8301   7.0285   7.4221   7.9329   8.4386   9.6855
    10.2068  10.2586  10.9434  11.3832  11.7315  12.1273  12.4635  13.0535
    13.5559  13.7212  14.0826  14.1619  14.7360  15.2445  15.9028  16.2609
    16.2619  16.7556  16.7793  17.1050  17.7172  17.7593  18.3679  18.5980
    18.8716  18.9344  19.2806  19.4243  20.3628  20.7950  21.1714  21.3411
    21.7518  22.2288  22.2343  22.4170  23.0319  23.9922  24.1114  24.6550
    25.2187  25.3923  25.7166  25.9247  26.4854  26.9032  26.9250  27.0431
    27.1071  27.5322  28.1803  28.8507  29.0664  29.7550  30.1267  30.2865
    30.3147  30.8034  31.0293  31.6548  31.8361  31.9667  32.5619  32.8913
    32.9436  32.9981  33.7847  33.9997  34.0133  34.2437  34.7907  34.9766
    35.1715  35.2472  35.4041  35.6174  35.7004  35.8331  36.1339  36.3452
    36.4266  36.7524  37.0606  37.3464  37.4033  37.7444  37.7982  38.0464
    38.2088  38.3569  38.8979  38.9206  38.9897  39.1583  39.6264  39.9208
    40.0399  40.7166  41.1909  41.2298  41.3474  41.5381  41.9677  42.1382
    42.2102  42.2547  42.6599  42.6834  43.2090  43.4143  43.5592  43.8045
    43.9743  44.1352  44.4317  44.6888  44.8178  45.1684  45.4637  45.6755
    45.7826  46.0255  46.1528  46.4765  46.5985  46.8785  47.0076  47.0771
    47.2569  47.2879  47.6909  47.8865  48.2183  48.5906  48.7206  49.0571
    49.0947  49.4548  49.5501  49.5775  49.7319  49.8442  49.8589  49.9378
    51.0172  51.0671  51.1156  51.2825  51.4713  51.6369  51.8147  51.8231
    51.9695  52.3933  52.5385  53.0064  53.0277  53.1129  53.4228  53.6560
    54.1352  54.4561  54.8124  54.8615  54.9845  55.0813  55.1185  55.1240

     occupation numbers 
     1.0000   1.0000   1.0000   1.0000   1.0000   1.0000   1.0000   1.0000
     1.0000   1.0000   1.0000   1.0000   1.0000   0.0000   0.0000   0.0000
     0.0000   0.0000   0.0000   0.0000   0.0000   0.0000   0.0000   0.0000
     0.0000   0.0000   0.0000   0.0000   0.0000   0.0000   0.0000   0.0000
     0.0000   0.0000   0.0000   0.0000   0.0000   0.0000   0.0000   0.0000
     0.0000   0.0000   0.0000   0.0000   0.0000   0.0000   0.0000   0.0000
     0.0000   0.0000   0.0000   0.0000   0.0000   0.0000   0.0000   0.0000
     0.0000   0.0000   0.0000   0.0000   0.0000   0.0000   0.0000   0.0000
     0.0000   0.0000   0.0000   0.0000   0.0000   0.0000   0.0000   0.0000
     0.0000   0.0000   0.0000   0.0000   0.0000   0.0000   0.0000   0.0000
     0.0000   0.0000   0.0000   0.0000   0.0000   0.0000   0.0000   0.0000
     0.0000   0.0000   0.0000   0.0000   0.0000   0.0000   0.0000   0.0000
     0.0000   0.0000   0.0000   0.0000   0.0000   0.0000   0.0000   0.0000
     0.0000   0.0000   0.0000   0.0000   0.0000   0.0000   0.0000   0.0000
     0.0000   0.0000   0.0000   0.0000   0.0000   0.0000   0.0000   0.0000
     0.0000   0.0000   0.0000   0.0000   0.0000   0.0000   0.0000   0.0000
     0.0000   0.0000   0.0000   0.0000   0.0000   0.0000   0.0000   0.0000
     0.0000   0.0000   0.0000   0.0000   0.0000   0.0000   0.0000   0.0000
     0.0000   0.0000   0.0000   0.0000   0.0000   0.0000   0.0000   0.0000
     0.0000   0.0000   0.0000   0.0000   0.0000   0.0000   0.0000   0.0000
     0.0000   0.0000   0.0000   0.0000   0.0000   0.0000   0.0000   0.0000
     0.0000   0.0000   0.0000   0.0000   0.0000   0.0000   0.0000   0.0000
     0.0000   0.0000   0.0000   0.0000   0.0000   0.0000   0.0000   0.0000
     0.0000   0.0000   0.0000   0.0000   0.0000   0.0000   0.0000   0.0000
     0.0000   0.0000   0.0000   0.0000   0.0000   0.0000   0.0000   0.0000

          k = 0.1667 0.2887 0.0000 ( 14767 PWs)   bands (ev):

   -66.6526 -40.8746 -40.8333 -40.7052 -19.0585 -18.3650 -11.0300  -9.8182
    -9.7296  -9.2286  -7.9250  -6.9750  -6.7705  -4.0023  -3.3679  -3.2039
    -1.6100   1.2575   1.3728   3.0639   3.3777   3.4827   3.9532   4.2540
     5.6302   5.6853   5.9361   6.5054   6.6912   7.8997   8.6709   9.0329
     9.7302  10.9845  11.6606  11.7918  11.8141  12.0036  12.5597  12.6419
    13.8824  14.0670  14.2563  14.3873  15.0625  16.0136  16.3022  16.8344
    16.8380  17.2669  17.4320  17.7886  18.1199  18.9110  19.0332  19.1834
    20.0829  20.2329  20.6135  20.9192  21.6477  21.7772  21.9700  22.0141
    22.3977  22.6432  22.7971  23.2405  23.5994  23.6129  24.1234  24.1412
    24.6296  24.8460  25.5244  25.6775  25.9021  25.9465  26.2588  27.1145
    27.3613  27.4032  27.7536  27.8159  27.9657  28.6437  29.1487  29.1963
    29.4212  29.4665  29.9235  30.6370  30.8523  31.0883  31.3621  31.5137
    31.7720  32.0785  32.3131  32.4867  32.7223  32.9245  33.1030  33.2261
    33.6337  33.9953  34.0325  34.2093  34.3781  34.8204  35.2801  35.4098
    35.8376  36.2070  36.5955  36.8397  36.9478  36.9977  37.4427  37.7331
    38.1271  38.1877  38.4730  38.5587  38.6971  39.0075  39.3131  39.5593
    39.5907  40.0132  40.4097  40.9593  40.9895  41.4957  41.6427  41.7673
    41.9677  42.0687  42.6058  42.6511  42.7540  42.8193  43.1605  43.6623
    43.8896  43.9068  44.3398  44.4445  44.7129  45.2420  45.3252  45.3389
    46.0429  46.0913  46.1978  46.3884  46.4498  46.8005  47.0868  47.3498
    47.3550  47.8658  48.3413  48.7004  48.7362  48.9319  49.0313  49.2366
    49.5615  49.6290  49.8281  50.0449  50.5086  50.5626  50.9318  51.1176
    51.4774  52.0187  52.0539  52.2912  52.5276  52.7953  52.8408  52.9428
    53.1372  53.2989  53.4673  53.7119  54.0989  54.1799  54.5548  54.6821
    54.8209  55.0663  55.1506  55.6335  55.6976  55.8837  55.9226  56.5862

     occupation numbers 
     1.0000   1.0000   1.0000   1.0000   1.0000   1.0000   1.0000   1.0000
     1.0000   1.0000   1.0000   1.0000   1.0000   0.0000   0.0000   0.0000
     0.0000   0.0000   0.0000   0.0000   0.0000   0.0000   0.0000   0.0000
     0.0000   0.0000   0.0000   0.0000   0.0000   0.0000   0.0000   0.0000
     0.0000   0.0000   0.0000   0.0000   0.0000   0.0000   0.0000   0.0000
     0.0000   0.0000   0.0000   0.0000   0.0000   0.0000   0.0000   0.0000
     0.0000   0.0000   0.0000   0.0000   0.0000   0.0000   0.0000   0.0000
     0.0000   0.0000   0.0000   0.0000   0.0000   0.0000   0.0000   0.0000
     0.0000   0.0000   0.0000   0.0000   0.0000   0.0000   0.0000   0.0000
     0.0000   0.0000   0.0000   0.0000   0.0000   0.0000   0.0000   0.0000
     0.0000   0.0000   0.0000   0.0000   0.0000   0.0000   0.0000   0.0000
     0.0000   0.0000   0.0000   0.0000   0.0000   0.0000   0.0000   0.0000
     0.0000   0.0000   0.0000   0.0000   0.0000   0.0000   0.0000   0.0000
     0.0000   0.0000   0.0000   0.0000   0.0000   0.0000   0.0000   0.0000
     0.0000   0.0000   0.0000   0.0000   0.0000   0.0000   0.0000   0.0000
     0.0000   0.0000   0.0000   0.0000   0.0000   0.0000   0.0000   0.0000
     0.0000   0.0000   0.0000   0.0000   0.0000   0.0000   0.0000   0.0000
     0.0000   0.0000   0.0000   0.0000   0.0000   0.0000   0.0000   0.0000
     0.0000   0.0000   0.0000   0.0000   0.0000   0.0000   0.0000   0.0000
     0.0000   0.0000   0.0000   0.0000   0.0000   0.0000   0.0000   0.0000
     0.0000   0.0000   0.0000   0.0000   0.0000   0.0000   0.0000   0.0000
     0.0000   0.0000   0.0000   0.0000   0.0000   0.0000   0.0000   0.0000
     0.0000   0.0000   0.0000   0.0000   0.0000   0.0000   0.0000   0.0000
     0.0000   0.0000   0.0000   0.0000   0.0000   0.0000   0.0000   0.0000
     0.0000   0.0000   0.0000   0.0000   0.0000   0.0000   0.0000   0.0000

          k = 0.1667 0.4811 0.0000 ( 14724 PWs)   bands (ev):

   -66.6356 -40.9999 -40.7999 -40.7776 -18.1927 -18.0114 -11.4354 -11.0095
    -9.8534  -9.2468  -8.3495  -7.6861  -6.4523  -3.6367  -3.0060  -2.5496
    -1.3620   1.1076   2.7428   2.7547   3.6453   3.8282   4.6237   4.7900
     5.3372   6.0650   6.7062   7.3345   7.5287   8.0137   8.2887   8.6611
     9.5044   9.9544  10.2427  10.6144  10.7214  11.2140  12.1386  12.5121
    12.7333  13.5156  13.8740  14.0882  14.4684  15.1632  15.3610  15.9174
    16.4417  16.9339  17.1241  17.7014  17.8123  18.3212  19.1769  19.2485
    19.7516  19.8837  20.5665  20.6969  20.9604  21.1976  21.6484  22.2122
    22.5416  22.7496  22.9924  23.0820  23.3229  23.6540  23.9830  24.1579
    24.5449  25.6137  25.7656  26.1811  26.3015  26.6022  26.8606  27.1224
    27.3046  27.5261  27.9198  28.3671  28.6668  28.9138  29.3186  29.5185
    30.0171  30.0399  30.5753  30.8304  31.0962  31.4252  31.6630  32.0006
    32.2823  32.6597  32.8638  33.2748  33.7549  33.9269  34.0144  34.2343
    34.6808  34.8494  35.2633  35.5154  35.5466  35.9227  36.3040  36.3542
    36.8618  36.9562  37.2067  37.2239  37.6880  37.7990  38.2361  38.3856
    38.6719  38.9514  39.0359  39.3566  39.4158  39.7185  40.1753  40.1846
    40.3808  40.8787  40.9635  41.1416  41.3053  41.6215  41.8598  42.2922
    42.3119  42.5550  42.6732  43.0539  43.2885  43.4637  43.5891  43.7998
    44.1598  44.4637  44.6122  44.8473  44.9310  45.3108  45.3396  45.5662
    45.7709  45.9855  46.0741  46.2880  46.7272  46.9289  46.9497  47.0892
    47.4713  47.8039  48.3251  48.4175  48.6039  48.7689  49.1747  49.2017
    49.4902  49.5890  49.7717  50.1157  50.2090  50.5313  50.8020  51.0225
    51.1406  51.2655  51.8370  51.8385  52.0965  52.1787  52.4863  52.5871
    52.7592  52.9746  53.1162  53.3505  53.4245  53.8948  54.0901  54.2735
    54.3823  54.6502  54.8112  54.9525  55.2215  55.2684  55.4667  55.5993

     occupation numbers 
     1.0000   1.0000   1.0000   1.0000   1.0000   1.0000   1.0000   1.0000
     1.0000   1.0000   1.0000   1.0000   1.0000   0.0000   0.0000   0.0000
     0.0000   0.0000   0.0000   0.0000   0.0000   0.0000   0.0000   0.0000
     0.0000   0.0000   0.0000   0.0000   0.0000   0.0000   0.0000   0.0000
     0.0000   0.0000   0.0000   0.0000   0.0000   0.0000   0.0000   0.0000
     0.0000   0.0000   0.0000   0.0000   0.0000   0.0000   0.0000   0.0000
     0.0000   0.0000   0.0000   0.0000   0.0000   0.0000   0.0000   0.0000
     0.0000   0.0000   0.0000   0.0000   0.0000   0.0000   0.0000   0.0000
     0.0000   0.0000   0.0000   0.0000   0.0000   0.0000   0.0000   0.0000
     0.0000   0.0000   0.0000   0.0000   0.0000   0.0000   0.0000   0.0000
     0.0000   0.0000   0.0000   0.0000   0.0000   0.0000   0.0000   0.0000
     0.0000   0.0000   0.0000   0.0000   0.0000   0.0000   0.0000   0.0000
     0.0000   0.0000   0.0000   0.0000   0.0000   0.0000   0.0000   0.0000
     0.0000   0.0000   0.0000   0.0000   0.0000   0.0000   0.0000   0.0000
     0.0000   0.0000   0.0000   0.0000   0.0000   0.0000   0.0000   0.0000
     0.0000   0.0000   0.0000   0.0000   0.0000   0.0000   0.0000   0.0000
     0.0000   0.0000   0.0000   0.0000   0.0000   0.0000   0.0000   0.0000
     0.0000   0.0000   0.0000   0.0000   0.0000   0.0000   0.0000   0.0000
     0.0000   0.0000   0.0000   0.0000   0.0000   0.0000   0.0000   0.0000
     0.0000   0.0000   0.0000   0.0000   0.0000   0.0000   0.0000   0.0000
     0.0000   0.0000   0.0000   0.0000   0.0000   0.0000   0.0000   0.0000
     0.0000   0.0000   0.0000   0.0000   0.0000   0.0000   0.0000   0.0000
     0.0000   0.0000   0.0000   0.0000   0.0000   0.0000   0.0000   0.0000
     0.0000   0.0000   0.0000   0.0000   0.0000   0.0000   0.0000   0.0000
     0.0000   0.0000   0.0000   0.0000   0.0000   0.0000   0.0000   0.0000

          k = 0.3333 0.5774 0.0000 ( 14718 PWs)   bands (ev):

   -66.6299 -40.9475 -40.8974 -40.7888 -17.8751 -17.8526 -11.5609 -10.6920
   -10.1668  -9.5342  -8.9125  -8.1434  -5.9650  -4.1597  -2.9073  -2.2474
    -0.8315   1.3399   1.6257   3.6519   4.6364   5.3871   5.7297   5.9714
     6.0408   6.4133   6.9763   7.2157   7.4823   7.4884   7.5152   7.8460
     8.4096   9.1860   9.4572   9.6742   9.8826  10.5564  10.9268  11.6936
    12.6066  12.8773  13.4723  13.4740  13.7985  14.1914  14.6033  16.0239
    17.4865  17.7002  17.8838  18.0167  18.1476  19.0307  19.0856  19.6315
    19.6819  20.1552  20.9799  21.2497  21.3669  21.4535  22.0523  22.0850
    22.4329  22.6645  23.6814  23.7067  23.8436  23.8804  23.9641  25.2570
    25.4443  26.0026  26.4548  26.7089  26.7431  26.9492  27.2677  27.3426
    27.4618  27.7614  27.8560  27.9823  28.7530  29.0736  29.1509  29.1914
    29.4781  29.6738  30.3319  30.4584  30.5864  30.9278  31.1072  31.6445
    31.9621  32.2636  32.5825  32.6268  32.6377  33.1542  33.1637  33.1936
    33.5691  33.6792  34.6001  34.8864  35.1762  35.8547  35.8806  36.0266
    36.7536  36.7806  36.8453  36.9494  37.7723  38.0345  38.4111  38.6194
    38.7315  38.8351  39.1026  39.3466  39.4574  39.4656  39.5929  40.9078
    41.4627  41.9068  42.1027  42.4198  42.6335  42.6888  43.1349  43.1580
    43.5994  43.7693  43.8318  44.3051  44.9083  45.1926  45.5117  45.7064
    45.7253  45.8466  45.8901  46.0737  46.0847  46.1832  46.3502  46.9228
    46.9658  47.1270  47.1399  47.1452  47.3071  47.7490  47.7967  47.9474
    48.2101  48.3238  48.4328  48.5149  48.6879  48.6998  48.8824  48.9917
    49.2102  49.2130  49.6415  49.7708  50.0074  50.1494  50.2286  50.4463
    50.7142  50.7867  50.9994  51.3048  51.3610  51.4394  51.6913  51.8710
    51.9071  52.1414  52.2279  52.6843  52.6958  52.7111  53.0775  53.1197
    53.2022  53.3321  53.5283  54.0753  54.1707  54.5630  54.6739  54.7635

     occupation numbers 
     1.0000   1.0000   1.0000   1.0000   1.0000   1.0000   1.0000   1.0000
     1.0000   1.0000   1.0000   1.0000   1.0000   0.0000   0.0000   0.0000
     0.0000   0.0000   0.0000   0.0000   0.0000   0.0000   0.0000   0.0000
     0.0000   0.0000   0.0000   0.0000   0.0000   0.0000   0.0000   0.0000
     0.0000   0.0000   0.0000   0.0000   0.0000   0.0000   0.0000   0.0000
     0.0000   0.0000   0.0000   0.0000   0.0000   0.0000   0.0000   0.0000
     0.0000   0.0000   0.0000   0.0000   0.0000   0.0000   0.0000   0.0000
     0.0000   0.0000   0.0000   0.0000   0.0000   0.0000   0.0000   0.0000
     0.0000   0.0000   0.0000   0.0000   0.0000   0.0000   0.0000   0.0000
     0.0000   0.0000   0.0000   0.0000   0.0000   0.0000   0.0000   0.0000
     0.0000   0.0000   0.0000   0.0000   0.0000   0.0000   0.0000   0.0000
     0.0000   0.0000   0.0000   0.0000   0.0000   0.0000   0.0000   0.0000
     0.0000   0.0000   0.0000   0.0000   0.0000   0.0000   0.0000   0.0000
     0.0000   0.0000   0.0000   0.0000   0.0000   0.0000   0.0000   0.0000
     0.0000   0.0000   0.0000   0.0000   0.0000   0.0000   0.0000   0.0000
     0.0000   0.0000   0.0000   0.0000   0.0000   0.0000   0.0000   0.0000
     0.0000   0.0000   0.0000   0.0000   0.0000   0.0000   0.0000   0.0000
     0.0000   0.0000   0.0000   0.0000   0.0000   0.0000   0.0000   0.0000
     0.0000   0.0000   0.0000   0.0000   0.0000   0.0000   0.0000   0.0000
     0.0000   0.0000   0.0000   0.0000   0.0000   0.0000   0.0000   0.0000
     0.0000   0.0000   0.0000   0.0000   0.0000   0.0000   0.0000   0.0000
     0.0000   0.0000   0.0000   0.0000   0.0000   0.0000   0.0000   0.0000
     0.0000   0.0000   0.0000   0.0000   0.0000   0.0000   0.0000   0.0000
     0.0000   0.0000   0.0000   0.0000   0.0000   0.0000   0.0000   0.0000
     0.0000   0.0000   0.0000   0.0000   0.0000   0.0000   0.0000   0.0000

     highest occupied, lowest unoccupied level (ev):    -5.9650   -4.1597

     Writing all to output data dir ./tmp/MoS2.save/ :
     XML data file, pseudopotentials, collected wavefunctions

     init_run     :      1.09s CPU      1.35s WALL (       1 calls)
     electrons    :     87.70s CPU     89.74s WALL (       1 calls)

     Called by init_run:
     wfcinit      :      0.00s CPU      0.00s WALL (       1 calls)
     wfcinit:atom :      0.00s CPU      0.00s WALL (       7 calls)
     wfcinit:wfcr :      1.17s CPU      1.19s WALL (       7 calls)
     potinit      :      0.01s CPU      0.02s WALL (       1 calls)
     hinit0       :      0.69s CPU      0.69s WALL (       1 calls)

     Called by electrons:
     c_bands      :     87.70s CPU     89.72s WALL (       1 calls)
     v_of_rho     :      0.01s CPU      0.01s WALL (       1 calls)
     v_h          :      0.00s CPU      0.00s WALL (       1 calls)
     v_xc         :      0.01s CPU      0.01s WALL (       1 calls)

     Called by c_bands:
     init_us_2    :      0.00s CPU      0.00s WALL (       7 calls)
     cegterg      :     86.46s CPU     88.43s WALL (      23 calls)

     Called by sum_band:

     Called by *egterg:
     cdiaghg      :     55.26s CPU     55.89s WALL (     412 calls)
     cegterg:over :      6.29s CPU      6.77s WALL (     405 calls)
     cegterg:upda :      2.89s CPU      2.97s WALL (     405 calls)
     cegterg:last :      5.66s CPU      6.11s WALL (     184 calls)
     cdiaghg:chol :      1.29s CPU      1.39s WALL (     412 calls)
     cdiaghg:inve :      1.02s CPU      1.04s WALL (     412 calls)
     cdiaghg:para :      9.19s CPU      9.54s WALL (     824 calls)
     h_psi        :     16.71s CPU     17.07s WALL (     435 calls)
     g_psi        :      0.06s CPU      0.06s WALL (     405 calls)

     Called by h_psi:
     h_psi:calbec :      0.55s CPU      0.55s WALL (     435 calls)
     vloc_psi     :     15.75s CPU     16.09s WALL (     435 calls)
                                        0.00s GPU  (     435 calls)
     add_vuspsi   :      0.34s CPU      0.34s WALL (     435 calls)

     General routines
     calbec       :      0.54s CPU      0.55s WALL (     435 calls)
     fft          :      0.67s CPU      0.67s WALL (      11 calls)
     fftw         :     14.80s CPU     15.12s WALL (   75906 calls)
     davcio       :      0.01s CPU      0.02s WALL (      14 calls)

     Parallel routines

     PWSCF        :   1m30.67s CPU   1m33.51s WALL


   This run was terminated on:   1:14:29  13Mar2026            

=------------------------------------------------------------------------------=
   JOB DONE.
=------------------------------------------------------------------------------=
