
     Program PWSCF v.7.5 starts on 19Mar2026 at 14:37:49 
        Git branch: HEAD
        Last git commit: 770a0b2d12928a67048e2f3da8d10d057e52179e
        Last git commit date: Tue Aug 19 09:57:12 2025 +0000
        Last git commit subject: Merge branch 'QE-7.5-RC' into 'master'

     This program is part of the open-source Quantum ESPRESSO suite
     for quantum simulation of materials; please cite
         "P. Giannozzi et al., J. Phys.:Condens. Matter 21 395502 (2009);
         "P. Giannozzi et al., J. Phys.:Condens. Matter 29 465901 (2017);
         "P. Giannozzi et al., J. Chem. Phys. 152 154105 (2020);
          URL http://www.quantum-espresso.org", 
     in publications or presentations arising from this work. More details at
     http://www.quantum-espresso.org/quote

     Parallel version (MPI), running on    64 processors

     MPI processes distributed on     4 nodes
     244736 MiB available memory on the printing compute node when the environment starts

     Waiting for input...
     Reading input from standard input

     Current dimensions of program PWSCF are:
     Max number of different atomic species (ntypx) = 10
     Max number of k-points (npk) =  40000
     Max angular momentum in pseudopotentials (lmaxx) =  4

     Atomic positions and unit cell read from directory:
     ./tmp/MoS2.save/


     K-points division:     npool     =       8
     R & G space division:  proc/nbgrp/npool/nimage =       8
     Subspace diagonalization in iterative solution of the eigenvalue problem:
     one sub-group per band group will be used
     custom distributed-memory algorithm (size of sub-group:  2*  2 procs)


     Parallelization info
     --------------------
     sticks:   dense  smooth     PW     G-vecs:    dense   smooth      PW
     Min          96      96     27                14728    14728    2297
     Max          97      97     28                14755    14755    2312
     Sum         769     769    223               117923   117923   18417

     Using Slab Decomposition



     bravais-lattice index     =            4
     lattice parameter (alat)  =       5.9358  a.u.
     unit-cell volume          =    1220.5221 (a.u.)^3
     number of atoms/cell      =            3
     number of atomic types    =            2
     number of electrons       =        26.00
     number of Kohn-Sham states=          200
     kinetic-energy cutoff     =      80.0000  Ry
     charge density cutoff     =     320.0000  Ry
     Exchange-correlation= PBESOL
                           (   1   4  10   8   0   0   0)

     celldm(1)=   5.935776  celldm(2)=   0.000000  celldm(3)=   6.738799
     celldm(4)=   0.000000  celldm(5)=   0.000000  celldm(6)=   0.000000

     crystal axes: (cart. coord. in units of alat)
               a(1) = (   1.000000   0.000000   0.000000 )  
               a(2) = (  -0.500000   0.866025   0.000000 )  
               a(3) = (   0.000000   0.000000   6.738799 )  

     reciprocal axes: (cart. coord. in units 2 pi/alat)
               b(1) = (  1.000000  0.577350 -0.000000 )  
               b(2) = (  0.000000  1.154701  0.000000 )  
               b(3) = (  0.000000 -0.000000  0.148394 )  


     PseudoPot. # 1 for Mo read from file:
     ../pseudo/Mo.pbesol.dojo.upf
     MD5 check sum: c40353276b9086539cda6b9e5a66907b
     Pseudo is Norm-conserving + core correction, Zval = 14.0
     Generated using ONCVPSP code by D. R. Hamann
     Using radial grid of 1640 points,  6 beta functions with: 
                l(1) =   0
                l(2) =   0
                l(3) =   1
                l(4) =   1
                l(5) =   2
                l(6) =   2

     PseudoPot. # 2 for S  read from file:
     ../pseudo/S.pbesol.dojo.upf
     MD5 check sum: 501737efeeef1fb1c631cda521d4e019
     Pseudo is Norm-conserving + core correction, Zval =  6.0
     Generated using ONCVPSP code by D. R. Hamann
     Using radial grid of 1146 points,  6 beta functions with: 
                l(1) =   0
                l(2) =   0
                l(3) =   1
                l(4) =   1
                l(5) =   2
                l(6) =   2

     atomic species   valence    mass     pseudopotential
     Mo               14.00    95.95000     Mo( 1.00)
     S                 6.00    32.06500     S ( 1.00)

     12 Sym. Ops. (no inversion) found


                                    s                        frac. trans.

      isym =  1     identity                                     

 cryst.   s( 1) = (     1          0          0      )
                  (     0          1          0      )
                  (     0          0          1      )

 cart.    s( 1) = (  1.0000000  0.0000000  0.0000000 )
                  (  0.0000000  1.0000000  0.0000000 )
                  (  0.0000000  0.0000000  1.0000000 )


      isym =  2     180 deg rotation - cart. axis [0,1,0]        

 cryst.   s( 2) = (    -1          0          0      )
                  (     1          1          0      )
                  (     0          0         -1      )

 cart.    s( 2) = ( -1.0000000  0.0000000  0.0000000 )
                  (  0.0000000  1.0000000  0.0000000 )
                  (  0.0000000  0.0000000 -1.0000000 )


      isym =  3     120 deg rotation - cryst. axis [0,0,1]       

 cryst.   s( 3) = (     0          1          0      )
                  (    -1         -1          0      )
                  (     0          0          1      )

 cart.    s( 3) = ( -0.5000000 -0.8660254  0.0000000 )
                  (  0.8660254 -0.5000000  0.0000000 )
                  (  0.0000000  0.0000000  1.0000000 )


      isym =  4     120 deg rotation - cryst. axis [0,0,-1]      

 cryst.   s( 4) = (    -1         -1          0      )
                  (     1          0          0      )
                  (     0          0          1      )

 cart.    s( 4) = ( -0.5000000  0.8660254  0.0000000 )
                  ( -0.8660254 -0.5000000  0.0000000 )
                  (  0.0000000  0.0000000  1.0000000 )


      isym =  5     180 deg rotation - cryst. axis [1,-1,0]      

 cryst.   s( 5) = (     0         -1          0      )
                  (    -1          0          0      )
                  (     0          0         -1      )

 cart.    s( 5) = (  0.5000000 -0.8660254  0.0000000 )
                  ( -0.8660254 -0.5000000  0.0000000 )
                  (  0.0000000  0.0000000 -1.0000000 )


      isym =  6     180 deg rotation - cryst. axis [2,1,0]       

 cryst.   s( 6) = (     1          1          0      )
                  (     0         -1          0      )
                  (     0          0         -1      )

 cart.    s( 6) = (  0.5000000  0.8660254  0.0000000 )
                  (  0.8660254 -0.5000000  0.0000000 )
                  (  0.0000000  0.0000000 -1.0000000 )


      isym =  7     inv. 180 deg rotation - cart. axis [0,0,1]   

 cryst.   s( 7) = (     1          0          0      )
                  (     0          1          0      )
                  (     0          0         -1      )

 cart.    s( 7) = (  1.0000000  0.0000000  0.0000000 )
                  (  0.0000000  1.0000000  0.0000000 )
                  (  0.0000000  0.0000000 -1.0000000 )


      isym =  8     inv. 180 deg rotation - cart. axis [1,0,0]   

 cryst.   s( 8) = (    -1          0          0      )
                  (     1          1          0      )
                  (     0          0          1      )

 cart.    s( 8) = ( -1.0000000  0.0000000  0.0000000 )
                  (  0.0000000  1.0000000  0.0000000 )
                  (  0.0000000  0.0000000  1.0000000 )


      isym =  9     inv.  60 deg rotation - cryst. axis [0,0,1]  

 cryst.   s( 9) = (    -1         -1          0      )
                  (     1          0          0      )
                  (     0          0         -1      )

 cart.    s( 9) = ( -0.5000000  0.8660254  0.0000000 )
                  ( -0.8660254 -0.5000000  0.0000000 )
                  (  0.0000000  0.0000000 -1.0000000 )


      isym = 10     inv.  60 deg rotation - cryst. axis [0,0,-1] 

 cryst.   s(10) = (     0          1          0      )
                  (    -1         -1          0      )
                  (     0          0         -1      )

 cart.    s(10) = ( -0.5000000 -0.8660254  0.0000000 )
                  (  0.8660254 -0.5000000  0.0000000 )
                  (  0.0000000  0.0000000 -1.0000000 )


      isym = 11     inv. 180 deg rotation - cryst. axis [0,1,0]  

 cryst.   s(11) = (     1          1          0      )
                  (     0         -1          0      )
                  (     0          0          1      )

 cart.    s(11) = (  0.5000000  0.8660254  0.0000000 )
                  (  0.8660254 -0.5000000  0.0000000 )
                  (  0.0000000  0.0000000  1.0000000 )


      isym = 12     inv. 180 deg rotation - cryst. axis [1,1,0]  

 cryst.   s(12) = (     0         -1          0      )
                  (    -1          0          0      )
                  (     0          0          1      )

 cart.    s(12) = (  0.5000000 -0.8660254  0.0000000 )
                  ( -0.8660254 -0.5000000  0.0000000 )
                  (  0.0000000  0.0000000  1.0000000 )


     point group D_3h (-62m)
     there are  6 classes
     the character table:

       E     2C3   3C2   s_h   2S3   3s_v 
A'_1   1.00  1.00  1.00  1.00  1.00  1.00
A'_2   1.00  1.00 -1.00  1.00  1.00 -1.00
E'     2.00 -1.00  0.00  2.00 -1.00  0.00
A''1   1.00  1.00  1.00 -1.00 -1.00 -1.00
A''2   1.00  1.00 -1.00 -1.00 -1.00  1.00
E''    2.00 -1.00  0.00 -2.00  1.00  0.00

     the symmetry operations in each class and the name of the first element:

     E        1
          identity                                               
     2C3      3    4
          120 deg rotation - cryst. axis [0,0,1]                 
     3C2      2    6    5
          180 deg rotation - cart. axis [0,1,0]                  
     s_h      7
          inv. 180 deg rotation - cart. axis [0,0,1]             
     2S3      9   10
          inv.  60 deg rotation - cryst. axis [0,0,1]            
     3s_v     8   11   12
          inv. 180 deg rotation - cart. axis [1,0,0]             

   Cartesian axes

     site n.     atom                  positions (alat units)
         1        Mo     tau(   1) = (   0.0000000   0.5773502   3.3693993  )
         2        S      tau(   2) = (   0.5000000   0.2886751   3.8653200  )
         3        S      tau(   3) = (   0.5000000   0.2886751   2.8734787  )

     Fixed atoms
     site n.  direction
         1    0   0   0
         2    0   0   1
         3    0   0   1

   Crystallographic axes

     site n.     atom                  positions (cryst. coord.)
         1        Mo     tau(   1) = (  0.3333333  0.6666666  0.5000000  )
         2        S      tau(   2) = (  0.6666667  0.3333333  0.5735918  )
         3        S      tau(   3) = (  0.6666667  0.3333333  0.4264082  )

     number of k points=   121
                       cart. coord. in units 2pi/alat
        k(    1) = (   0.0000000   0.0000000   0.0000000), wk =   0.0165289
        k(    2) = (   0.0083325   0.0144323   0.0000000), wk =   0.0165289
        k(    3) = (   0.0166650   0.0288646   0.0000000), wk =   0.0165289
        k(    4) = (   0.0249975   0.0432969   0.0000000), wk =   0.0165289
        k(    5) = (   0.0333300   0.0577293   0.0000000), wk =   0.0165289
        k(    6) = (   0.0416625   0.0721616   0.0000000), wk =   0.0165289
        k(    7) = (   0.0499950   0.0865939   0.0000000), wk =   0.0165289
        k(    8) = (   0.0583275   0.1010262   0.0000000), wk =   0.0165289
        k(    9) = (   0.0666600   0.1154585   0.0000000), wk =   0.0165289
        k(   10) = (   0.0749925   0.1298908   0.0000000), wk =   0.0165289
        k(   11) = (   0.0833250   0.1443231   0.0000000), wk =   0.0165289
        k(   12) = (   0.0916575   0.1587554   0.0000000), wk =   0.0165289
        k(   13) = (   0.0999900   0.1731878   0.0000000), wk =   0.0165289
        k(   14) = (   0.1083225   0.1876201   0.0000000), wk =   0.0165289
        k(   15) = (   0.1166550   0.2020524   0.0000000), wk =   0.0165289
        k(   16) = (   0.1249875   0.2164847   0.0000000), wk =   0.0165289
        k(   17) = (   0.1333200   0.2309170   0.0000000), wk =   0.0165289
        k(   18) = (   0.1416525   0.2453493   0.0000000), wk =   0.0165289
        k(   19) = (   0.1499850   0.2597816   0.0000000), wk =   0.0165289
        k(   20) = (   0.1583175   0.2742140   0.0000000), wk =   0.0165289
        k(   21) = (   0.1666500   0.2886463   0.0000000), wk =   0.0165289
        k(   22) = (   0.1749825   0.3030786   0.0000000), wk =   0.0165289
        k(   23) = (   0.1833150   0.3175109   0.0000000), wk =   0.0165289
        k(   24) = (   0.1916475   0.3319432   0.0000000), wk =   0.0165289
        k(   25) = (   0.1999800   0.3463755   0.0000000), wk =   0.0165289
        k(   26) = (   0.2083125   0.3608078   0.0000000), wk =   0.0165289
        k(   27) = (   0.2166450   0.3752401   0.0000000), wk =   0.0165289
        k(   28) = (   0.2249775   0.3896725   0.0000000), wk =   0.0165289
        k(   29) = (   0.2333100   0.4041048   0.0000000), wk =   0.0165289
        k(   30) = (   0.2416425   0.4185371   0.0000000), wk =   0.0165289
        k(   31) = (   0.2499750   0.4329694   0.0000000), wk =   0.0165289
        k(   32) = (   0.2583075   0.4474017   0.0000000), wk =   0.0165289
        k(   33) = (   0.2666400   0.4618340   0.0000000), wk =   0.0165289
        k(   34) = (   0.2749725   0.4762663   0.0000000), wk =   0.0165289
        k(   35) = (   0.2833050   0.4906987   0.0000000), wk =   0.0165289
        k(   36) = (   0.2916375   0.5051310   0.0000000), wk =   0.0165289
        k(   37) = (   0.2999700   0.5195633   0.0000000), wk =   0.0165289
        k(   38) = (   0.3083025   0.5339956   0.0000000), wk =   0.0165289
        k(   39) = (   0.3166350   0.5484279   0.0000000), wk =   0.0165289
        k(   40) = (   0.3249675   0.5628602   0.0000000), wk =   0.0165289
        k(   41) = (   0.3333000   0.5772925   0.0000000), wk =   0.0165289
        k(   42) = (   0.3374675   0.5700771   0.0000000), wk =   0.0165289
        k(   43) = (   0.3416350   0.5628617   0.0000000), wk =   0.0165289
        k(   44) = (   0.3458025   0.5556462   0.0000000), wk =   0.0165289
        k(   45) = (   0.3499700   0.5484308   0.0000000), wk =   0.0165289
        k(   46) = (   0.3541375   0.5412154   0.0000000), wk =   0.0165289
        k(   47) = (   0.3583050   0.5339999   0.0000000), wk =   0.0165289
        k(   48) = (   0.3624725   0.5267845   0.0000000), wk =   0.0165289
        k(   49) = (   0.3666400   0.5195691   0.0000000), wk =   0.0165289
        k(   50) = (   0.3708075   0.5123536   0.0000000), wk =   0.0165289
        k(   51) = (   0.3749750   0.5051382   0.0000000), wk =   0.0165289
        k(   52) = (   0.3791425   0.4979227   0.0000000), wk =   0.0165289
        k(   53) = (   0.3833100   0.4907073   0.0000000), wk =   0.0165289
        k(   54) = (   0.3874775   0.4834919   0.0000000), wk =   0.0165289
        k(   55) = (   0.3916450   0.4762764   0.0000000), wk =   0.0165289
        k(   56) = (   0.3958125   0.4690610   0.0000000), wk =   0.0165289
        k(   57) = (   0.3999800   0.4618456   0.0000000), wk =   0.0165289
        k(   58) = (   0.4041475   0.4546301   0.0000000), wk =   0.0165289
        k(   59) = (   0.4083150   0.4474147   0.0000000), wk =   0.0165289
        k(   60) = (   0.4124825   0.4401993   0.0000000), wk =   0.0165289
        k(   61) = (   0.4166500   0.4329838   0.0000000), wk =   0.0165289
        k(   62) = (   0.4208175   0.4257684   0.0000000), wk =   0.0165289
        k(   63) = (   0.4249850   0.4185530   0.0000000), wk =   0.0165289
        k(   64) = (   0.4291525   0.4113375   0.0000000), wk =   0.0165289
        k(   65) = (   0.4333200   0.4041221   0.0000000), wk =   0.0165289
        k(   66) = (   0.4374875   0.3969067   0.0000000), wk =   0.0165289
        k(   67) = (   0.4416550   0.3896912   0.0000000), wk =   0.0165289
        k(   68) = (   0.4458225   0.3824758   0.0000000), wk =   0.0165289
        k(   69) = (   0.4499900   0.3752604   0.0000000), wk =   0.0165289
        k(   70) = (   0.4541575   0.3680449   0.0000000), wk =   0.0165289
        k(   71) = (   0.4583250   0.3608295   0.0000000), wk =   0.0165289
        k(   72) = (   0.4624925   0.3536140   0.0000000), wk =   0.0165289
        k(   73) = (   0.4666600   0.3463986   0.0000000), wk =   0.0165289
        k(   74) = (   0.4708275   0.3391832   0.0000000), wk =   0.0165289
        k(   75) = (   0.4749950   0.3319677   0.0000000), wk =   0.0165289
        k(   76) = (   0.4791625   0.3247523   0.0000000), wk =   0.0165289
        k(   77) = (   0.4833300   0.3175369   0.0000000), wk =   0.0165289
        k(   78) = (   0.4874975   0.3103214   0.0000000), wk =   0.0165289
        k(   79) = (   0.4916650   0.3031060   0.0000000), wk =   0.0165289
        k(   80) = (   0.4958325   0.2958906   0.0000000), wk =   0.0165289
        k(   81) = (   0.5000000   0.2886751   0.0000000), wk =   0.0165289
        k(   82) = (   0.4875000   0.2814583   0.0000000), wk =   0.0165289
        k(   83) = (   0.4750000   0.2742414   0.0000000), wk =   0.0165289
        k(   84) = (   0.4625000   0.2670245   0.0000000), wk =   0.0165289
        k(   85) = (   0.4500000   0.2598076   0.0000000), wk =   0.0165289
        k(   86) = (   0.4375000   0.2525907   0.0000000), wk =   0.0165289
        k(   87) = (   0.4250000   0.2453739   0.0000000), wk =   0.0165289
        k(   88) = (   0.4125000   0.2381570   0.0000000), wk =   0.0165289
        k(   89) = (   0.4000000   0.2309401   0.0000000), wk =   0.0165289
        k(   90) = (   0.3875000   0.2237232   0.0000000), wk =   0.0165289
        k(   91) = (   0.3750000   0.2165064   0.0000000), wk =   0.0165289
        k(   92) = (   0.3625000   0.2092895   0.0000000), wk =   0.0165289
        k(   93) = (   0.3500000   0.2020726   0.0000000), wk =   0.0165289
        k(   94) = (   0.3375000   0.1948557   0.0000000), wk =   0.0165289
        k(   95) = (   0.3250000   0.1876388   0.0000000), wk =   0.0165289
        k(   96) = (   0.3125000   0.1804220   0.0000000), wk =   0.0165289
        k(   97) = (   0.3000000   0.1732051   0.0000000), wk =   0.0165289
        k(   98) = (   0.2875000   0.1659882   0.0000000), wk =   0.0165289
        k(   99) = (   0.2750000   0.1587713   0.0000000), wk =   0.0165289
        k(  100) = (   0.2625000   0.1515544   0.0000000), wk =   0.0165289
        k(  101) = (   0.2500000   0.1443376   0.0000000), wk =   0.0165289
        k(  102) = (   0.2375000   0.1371207   0.0000000), wk =   0.0165289
        k(  103) = (   0.2250000   0.1299038   0.0000000), wk =   0.0165289
        k(  104) = (   0.2125000   0.1226869   0.0000000), wk =   0.0165289
        k(  105) = (   0.2000000   0.1154701   0.0000000), wk =   0.0165289
        k(  106) = (   0.1875000   0.1082532   0.0000000), wk =   0.0165289
        k(  107) = (   0.1750000   0.1010363   0.0000000), wk =   0.0165289
        k(  108) = (   0.1625000   0.0938194   0.0000000), wk =   0.0165289
        k(  109) = (   0.1500000   0.0866025   0.0000000), wk =   0.0165289
        k(  110) = (   0.1375000   0.0793857   0.0000000), wk =   0.0165289
        k(  111) = (   0.1250000   0.0721688   0.0000000), wk =   0.0165289
        k(  112) = (   0.1125000   0.0649519   0.0000000), wk =   0.0165289
        k(  113) = (   0.1000000   0.0577350   0.0000000), wk =   0.0165289
        k(  114) = (   0.0875000   0.0505181   0.0000000), wk =   0.0165289
        k(  115) = (   0.0750000   0.0433013   0.0000000), wk =   0.0165289
        k(  116) = (   0.0625000   0.0360844   0.0000000), wk =   0.0165289
        k(  117) = (   0.0500000   0.0288675   0.0000000), wk =   0.0165289
        k(  118) = (   0.0375000   0.0216506   0.0000000), wk =   0.0165289
        k(  119) = (   0.0250000   0.0144338   0.0000000), wk =   0.0165289
        k(  120) = (   0.0125000   0.0072169   0.0000000), wk =   0.0165289
        k(  121) = (   0.0000000   0.0000000   0.0000000), wk =   0.0165289

                       cryst. coord.
        k(    1) = (   0.0000000   0.0000000   0.0000000), wk =   0.0165289
        k(    2) = (   0.0083325   0.0083325   0.0000000), wk =   0.0165289
        k(    3) = (   0.0166650   0.0166650   0.0000000), wk =   0.0165289
        k(    4) = (   0.0249975   0.0249975   0.0000000), wk =   0.0165289
        k(    5) = (   0.0333300   0.0333300   0.0000000), wk =   0.0165289
        k(    6) = (   0.0416625   0.0416625   0.0000000), wk =   0.0165289
        k(    7) = (   0.0499950   0.0499950   0.0000000), wk =   0.0165289
        k(    8) = (   0.0583275   0.0583275   0.0000000), wk =   0.0165289
        k(    9) = (   0.0666600   0.0666600   0.0000000), wk =   0.0165289
        k(   10) = (   0.0749925   0.0749925   0.0000000), wk =   0.0165289
        k(   11) = (   0.0833250   0.0833250   0.0000000), wk =   0.0165289
        k(   12) = (   0.0916575   0.0916575   0.0000000), wk =   0.0165289
        k(   13) = (   0.0999900   0.0999900   0.0000000), wk =   0.0165289
        k(   14) = (   0.1083225   0.1083225   0.0000000), wk =   0.0165289
        k(   15) = (   0.1166550   0.1166550   0.0000000), wk =   0.0165289
        k(   16) = (   0.1249875   0.1249875   0.0000000), wk =   0.0165289
        k(   17) = (   0.1333200   0.1333200   0.0000000), wk =   0.0165289
        k(   18) = (   0.1416525   0.1416525   0.0000000), wk =   0.0165289
        k(   19) = (   0.1499850   0.1499850   0.0000000), wk =   0.0165289
        k(   20) = (   0.1583175   0.1583175   0.0000000), wk =   0.0165289
        k(   21) = (   0.1666500   0.1666500   0.0000000), wk =   0.0165289
        k(   22) = (   0.1749825   0.1749825   0.0000000), wk =   0.0165289
        k(   23) = (   0.1833150   0.1833150   0.0000000), wk =   0.0165289
        k(   24) = (   0.1916475   0.1916475   0.0000000), wk =   0.0165289
        k(   25) = (   0.1999800   0.1999800   0.0000000), wk =   0.0165289
        k(   26) = (   0.2083125   0.2083125   0.0000000), wk =   0.0165289
        k(   27) = (   0.2166450   0.2166450   0.0000000), wk =   0.0165289
        k(   28) = (   0.2249775   0.2249775   0.0000000), wk =   0.0165289
        k(   29) = (   0.2333100   0.2333100   0.0000000), wk =   0.0165289
        k(   30) = (   0.2416425   0.2416425   0.0000000), wk =   0.0165289
        k(   31) = (   0.2499750   0.2499750   0.0000000), wk =   0.0165289
        k(   32) = (   0.2583075   0.2583075   0.0000000), wk =   0.0165289
        k(   33) = (   0.2666400   0.2666400   0.0000000), wk =   0.0165289
        k(   34) = (   0.2749725   0.2749725   0.0000000), wk =   0.0165289
        k(   35) = (   0.2833050   0.2833050   0.0000000), wk =   0.0165289
        k(   36) = (   0.2916375   0.2916375   0.0000000), wk =   0.0165289
        k(   37) = (   0.2999700   0.2999700   0.0000000), wk =   0.0165289
        k(   38) = (   0.3083025   0.3083025   0.0000000), wk =   0.0165289
        k(   39) = (   0.3166350   0.3166350   0.0000000), wk =   0.0165289
        k(   40) = (   0.3249675   0.3249675   0.0000000), wk =   0.0165289
        k(   41) = (   0.3333000   0.3333000   0.0000000), wk =   0.0165289
        k(   42) = (   0.3374675   0.3249675   0.0000000), wk =   0.0165289
        k(   43) = (   0.3416350   0.3166350   0.0000000), wk =   0.0165289
        k(   44) = (   0.3458025   0.3083025   0.0000000), wk =   0.0165289
        k(   45) = (   0.3499700   0.2999700   0.0000000), wk =   0.0165289
        k(   46) = (   0.3541375   0.2916375   0.0000000), wk =   0.0165289
        k(   47) = (   0.3583050   0.2833050   0.0000000), wk =   0.0165289
        k(   48) = (   0.3624725   0.2749725   0.0000000), wk =   0.0165289
        k(   49) = (   0.3666400   0.2666400   0.0000000), wk =   0.0165289
        k(   50) = (   0.3708075   0.2583075   0.0000000), wk =   0.0165289
        k(   51) = (   0.3749750   0.2499750   0.0000000), wk =   0.0165289
        k(   52) = (   0.3791425   0.2416425   0.0000000), wk =   0.0165289
        k(   53) = (   0.3833100   0.2333100   0.0000000), wk =   0.0165289
        k(   54) = (   0.3874775   0.2249775   0.0000000), wk =   0.0165289
        k(   55) = (   0.3916450   0.2166450   0.0000000), wk =   0.0165289
        k(   56) = (   0.3958125   0.2083125   0.0000000), wk =   0.0165289
        k(   57) = (   0.3999800   0.1999800   0.0000000), wk =   0.0165289
        k(   58) = (   0.4041475   0.1916475   0.0000000), wk =   0.0165289
        k(   59) = (   0.4083150   0.1833150   0.0000000), wk =   0.0165289
        k(   60) = (   0.4124825   0.1749825   0.0000000), wk =   0.0165289
        k(   61) = (   0.4166500   0.1666500   0.0000000), wk =   0.0165289
        k(   62) = (   0.4208175   0.1583175   0.0000000), wk =   0.0165289
        k(   63) = (   0.4249850   0.1499850   0.0000000), wk =   0.0165289
        k(   64) = (   0.4291525   0.1416525   0.0000000), wk =   0.0165289
        k(   65) = (   0.4333200   0.1333200   0.0000000), wk =   0.0165289
        k(   66) = (   0.4374875   0.1249875   0.0000000), wk =   0.0165289
        k(   67) = (   0.4416550   0.1166550   0.0000000), wk =   0.0165289
        k(   68) = (   0.4458225   0.1083225   0.0000000), wk =   0.0165289
        k(   69) = (   0.4499900   0.0999900   0.0000000), wk =   0.0165289
        k(   70) = (   0.4541575   0.0916575   0.0000000), wk =   0.0165289
        k(   71) = (   0.4583250   0.0833250   0.0000000), wk =   0.0165289
        k(   72) = (   0.4624925   0.0749925   0.0000000), wk =   0.0165289
        k(   73) = (   0.4666600   0.0666600   0.0000000), wk =   0.0165289
        k(   74) = (   0.4708275   0.0583275   0.0000000), wk =   0.0165289
        k(   75) = (   0.4749950   0.0499950   0.0000000), wk =   0.0165289
        k(   76) = (   0.4791625   0.0416625   0.0000000), wk =   0.0165289
        k(   77) = (   0.4833300   0.0333300   0.0000000), wk =   0.0165289
        k(   78) = (   0.4874975   0.0249975   0.0000000), wk =   0.0165289
        k(   79) = (   0.4916650   0.0166650   0.0000000), wk =   0.0165289
        k(   80) = (   0.4958325   0.0083325   0.0000000), wk =   0.0165289
        k(   81) = (   0.5000000   0.0000000   0.0000000), wk =   0.0165289
        k(   82) = (   0.4875000  -0.0000000   0.0000000), wk =   0.0165289
        k(   83) = (   0.4750000   0.0000000   0.0000000), wk =   0.0165289
        k(   84) = (   0.4625000   0.0000000   0.0000000), wk =   0.0165289
        k(   85) = (   0.4500000   0.0000000   0.0000000), wk =   0.0165289
        k(   86) = (   0.4375000  -0.0000000   0.0000000), wk =   0.0165289
        k(   87) = (   0.4250000   0.0000000   0.0000000), wk =   0.0165289
        k(   88) = (   0.4125000   0.0000000   0.0000000), wk =   0.0165289
        k(   89) = (   0.4000000   0.0000000   0.0000000), wk =   0.0165289
        k(   90) = (   0.3875000   0.0000000   0.0000000), wk =   0.0165289
        k(   91) = (   0.3750000   0.0000000   0.0000000), wk =   0.0165289
        k(   92) = (   0.3625000   0.0000000   0.0000000), wk =   0.0165289
        k(   93) = (   0.3500000   0.0000000   0.0000000), wk =   0.0165289
        k(   94) = (   0.3375000   0.0000000   0.0000000), wk =   0.0165289
        k(   95) = (   0.3250000   0.0000000   0.0000000), wk =   0.0165289
        k(   96) = (   0.3125000   0.0000000   0.0000000), wk =   0.0165289
        k(   97) = (   0.3000000   0.0000000   0.0000000), wk =   0.0165289
        k(   98) = (   0.2875000   0.0000000   0.0000000), wk =   0.0165289
        k(   99) = (   0.2750000   0.0000000   0.0000000), wk =   0.0165289
        k(  100) = (   0.2625000   0.0000000   0.0000000), wk =   0.0165289
        k(  101) = (   0.2500000   0.0000000   0.0000000), wk =   0.0165289
        k(  102) = (   0.2375000   0.0000000   0.0000000), wk =   0.0165289
        k(  103) = (   0.2250000   0.0000000   0.0000000), wk =   0.0165289
        k(  104) = (   0.2125000   0.0000000   0.0000000), wk =   0.0165289
        k(  105) = (   0.2000000   0.0000000   0.0000000), wk =   0.0165289
        k(  106) = (   0.1875000   0.0000000   0.0000000), wk =   0.0165289
        k(  107) = (   0.1750000   0.0000000   0.0000000), wk =   0.0165289
        k(  108) = (   0.1625000   0.0000000   0.0000000), wk =   0.0165289
        k(  109) = (   0.1500000   0.0000000   0.0000000), wk =   0.0165289
        k(  110) = (   0.1375000   0.0000000   0.0000000), wk =   0.0165289
        k(  111) = (   0.1250000   0.0000000   0.0000000), wk =   0.0165289
        k(  112) = (   0.1125000   0.0000000   0.0000000), wk =   0.0165289
        k(  113) = (   0.1000000   0.0000000   0.0000000), wk =   0.0165289
        k(  114) = (   0.0875000   0.0000000   0.0000000), wk =   0.0165289
        k(  115) = (   0.0750000   0.0000000   0.0000000), wk =   0.0165289
        k(  116) = (   0.0625000   0.0000000   0.0000000), wk =   0.0165289
        k(  117) = (   0.0500000   0.0000000   0.0000000), wk =   0.0165289
        k(  118) = (   0.0375000   0.0000000   0.0000000), wk =   0.0165289
        k(  119) = (   0.0250000   0.0000000   0.0000000), wk =   0.0165289
        k(  120) = (   0.0125000   0.0000000   0.0000000), wk =   0.0165289
        k(  121) = (   0.0000000   0.0000000   0.0000000), wk =   0.0165289

     Dense  grid:   117923 G-vectors     FFT dimensions: (  36,  36, 240)

     Dynamical RAM for                 wfc:       5.62 MB

     Dynamical RAM for     wfc (w. buffer):       5.62 MB

     Dynamical RAM for           str. fact:       0.45 MB

     Dynamical RAM for           local pot:       0.00 MB

     Dynamical RAM for          nlocal pot:       1.52 MB

     Dynamical RAM for                qrad:       2.87 MB

     Dynamical RAM for          rho,v,vnew:       1.56 MB

     Dynamical RAM for           G-vectors:       0.96 MB

     Dynamical RAM for          h,s,v(r/c):       1.83 MB

     Dynamical RAM for          <psi|beta>:       0.16 MB

     Dynamical RAM for                 psi:      11.25 MB

     Dynamical RAM for                hpsi:      11.25 MB

     Dynamical RAM for      wfcinit/wfcrot:      12.17 MB

     Estimated static dynamical RAM per process >      15.14 MB

     Estimated max dynamical RAM per process >      39.64 MB

     Estimated total dynamical RAM >       2.48 GB
 ----2D----2D----2D----2D----2D----2D----2D----2D----2D----2D----2D----2D
  The code is running with the 2D cutoff
  Please refer to:
  Sohier, T., Calandra, M., & Mauri, F. (2017), 
  Density functional perturbation theory for gated two-dimensional heterostructures:
  Theoretical developments and application to flexural phonons in graphene.
  Physical Review B, 96(7), 75448. https://doi.org/10.1103/PhysRevB.96.075448
 ----2D----2D----2D----2D----2D----2D----2D----2D----2D----2D----2D----2D

     The potential is recalculated from file :
     ./tmp/MoS2.save/charge-density

     Starting wfcs are   18 randomized atomic wfcs +  182 random wfcs

     Band Structure Calculation
     Davidson diagonalization with overlap

     Computing kpt #:     1  of    16 on this pool
     total cpu time spent up to now is       32.9 secs

     Computing kpt #:     2  of    16 on this pool
     total cpu time spent up to now is       55.2 secs

     Computing kpt #:     3  of    16 on this pool
     total cpu time spent up to now is       77.1 secs

     Computing kpt #:     4  of    16 on this pool
     total cpu time spent up to now is       96.1 secs

     Computing kpt #:     5  of    16 on this pool
     c_bands:  1 eigenvalues not converged
     total cpu time spent up to now is      117.7 secs

     Computing kpt #:     6  of    16 on this pool
     total cpu time spent up to now is      136.7 secs

     Computing kpt #:     7  of    16 on this pool
     total cpu time spent up to now is      155.6 secs

     Computing kpt #:     8  of    16 on this pool
     total cpu time spent up to now is      175.1 secs

     Computing kpt #:     9  of    16 on this pool
     total cpu time spent up to now is      194.5 secs

     Computing kpt #:    10  of    16 on this pool
     total cpu time spent up to now is      216.0 secs

     Computing kpt #:    11  of    16 on this pool
     total cpu time spent up to now is      235.6 secs

     Computing kpt #:    12  of    16 on this pool
     total cpu time spent up to now is      256.8 secs

     Computing kpt #:    13  of    16 on this pool
     total cpu time spent up to now is      279.0 secs

     Computing kpt #:    14  of    16 on this pool
     total cpu time spent up to now is      301.1 secs

     Computing kpt #:    15  of    16 on this pool
     total cpu time spent up to now is      323.1 secs

     Computing kpt #:    16  of    16 on this pool
     total cpu time spent up to now is      339.3 secs

     ethr =  1.00E-13,  avg # of iterations = 66.1

     total cpu time spent up to now is      339.4 secs

     End of band structure calculation

          k = 0.0000 0.0000 0.0000 ( 14855 PWs)   bands (ev):

   -66.6809 -40.8886 -40.6217 -40.6217 -20.1928 -18.8275 -11.7396  -8.5876
    -8.5876  -7.8081  -7.4283  -7.4283  -6.0332  -3.0689  -3.0689  -2.7926
    -2.7926  -0.3341  -0.1589   0.4703   2.1861   2.3413   3.1577   4.8577
     4.8577   5.3486   6.0006   6.8782   6.8782   7.1820   9.4658  10.1159
    10.2029  10.2029  10.5333  10.5333  10.6390  12.3465  13.9863  14.2336
    15.2577  16.2720  17.2842  17.2842  18.9029  18.9029  18.9134  19.2047
    19.6170  19.6170  19.6253  19.7518  19.7681  19.7681  20.2905  20.3343
    20.6191  20.6191  21.5393  21.5393  21.7497  21.9396  21.9643  21.9643
    22.2757  22.2757  22.2995  22.7266  22.7266  22.9134  23.7420  24.1812
    24.4550  24.4550  24.4616  24.4616  24.7599  25.1737  25.5660  25.5660
    25.6930  25.6930  25.7808  26.7413  27.3466  27.3466  27.8618  27.8618
    27.9218  28.6939  28.7747  29.0224  29.0224  29.6738  29.6738  30.1007
    30.1076  30.9237  30.9237  31.1195  31.4936  31.4936  31.6147  31.6147
    31.7889  32.3250  33.2678  33.3560  33.9028  33.9028  33.9276  33.9276
    34.6421  34.7035  35.5740  35.5740  35.6233  35.6233  36.2138  36.7733
    36.7733  37.0600  37.3814  37.4588  37.4588  37.8508  38.2898  38.6875
    38.6875  38.8312  38.8312  38.9665  39.8763  39.8763  40.7040  40.9205
    40.9205  41.6169  41.6169  41.6990  41.7994  41.9428  41.9428  42.2903
    42.6772  42.8083  42.8083  44.7630  44.8051  44.9383  44.9383  45.6323
    45.7273  45.7273  46.4300  46.4300  46.7150  46.8706  47.4089  47.4217
    47.4217  48.5701  48.7742  49.1434  49.1434  50.2113  50.2113  50.8845
    50.8845  50.9726  51.6358  52.2066  52.2364  52.2364  52.5171  52.5171
    52.9537  52.9537  53.3010  53.9793  53.9793  54.2075  54.2144  55.0831
    55.4143  55.6636  55.8633  55.8633  57.0059  57.0059  57.6640  57.6870
    57.6870  58.0551  58.0551  58.8641  58.8933  59.0365  59.0767  59.1029

          k = 0.0083 0.0144 0.0000 ( 14867 PWs)   bands (ev):

   -66.6808 -40.8884 -40.6226 -40.6219 -20.1894 -18.8262 -11.7358  -8.5953
    -8.5841  -7.8358  -7.4338  -7.4051  -6.0343  -3.0747  -3.0627  -2.8037
    -2.7967  -0.3270  -0.1547   0.4849   2.1904   2.3452   3.1736   4.8399
     4.8683   5.3622   6.0032   6.8488   6.8791   7.1806   9.4659  10.1338
    10.1750  10.2097  10.5215  10.5340  10.6663  12.3574  14.0193  14.2371
    15.2621  16.2666  17.2703  17.2943  18.6296  18.8373  18.9044  19.3251
    19.3390  19.5396  19.6343  19.6844  19.8626  19.9455  20.1820  20.5301
    20.6941  20.8261  21.2076  21.4687  21.6104  21.8545  21.9972  22.1323
    22.1844  22.2722  22.3749  22.8299  22.9256  23.0904  23.7592  24.1764
    24.1866  24.3616  24.3908  24.4245  25.0049  25.1343  25.5269  25.6278
    25.6447  25.7329  25.9665  26.8380  27.2512  27.3089  27.7545  27.8482
    28.0062  28.6880  28.7706  29.0622  29.1154  29.6290  29.6831  30.1226
    30.1480  30.8369  30.8992  31.0531  31.4866  31.5341  31.5754  31.6110
    31.8902  32.4386  33.2386  33.2955  33.8472  33.8976  33.9196  33.9244
    34.7111  34.7752  35.4559  35.5644  35.6046  35.6079  36.3615  36.5834
    36.8073  37.2666  37.2899  37.4205  37.4399  37.8245  38.2809  38.6427
    38.7140  38.8175  38.8787  39.1175  39.8274  39.8884  40.7725  40.8916
    40.9069  41.4256  41.6130  41.6385  41.9087  41.9685  42.0557  42.3044
    42.6205  42.8793  43.0231  44.6755  44.7677  44.8628  44.9509  45.5988
    45.7978  45.8520  46.3241  46.3419  46.7669  46.7744  47.3884  47.5000
    47.6103  48.4398  48.8108  49.1167  49.2160  50.1522  50.1660  50.8439
    50.8861  50.9336  51.6353  52.1544  52.1929  52.2013  52.5253  52.5545
    52.9230  53.0546  53.4802  53.8251  53.9734  54.2467  54.3562  55.0223
    55.1531  55.6845  55.8311  56.0913  56.9216  57.0172  57.4342  57.7279
    57.9592  57.9742  58.0161  58.5861  58.7129  58.9422  59.0010  59.1390

          k = 0.0167 0.0289 0.0000 ( 14855 PWs)   bands (ev):

   -66.6805 -40.8879 -40.6253 -40.6225 -20.1795 -18.8221 -11.7244  -8.6182
    -8.5736  -7.9047  -7.4506  -7.3499  -6.0375  -3.0917  -3.0444  -2.8360
    -2.8087  -0.3065  -0.1422   0.5285   2.2031   2.3568   3.2208   4.7916
     4.8995   5.3983   6.0103   6.7652   6.8817   7.1759   9.4659  10.0703
    10.1977  10.2452  10.4858  10.5369  10.7421  12.3899  14.1154  14.2477
    15.2751  16.2502  17.2319  17.3232  18.2139  18.6266  18.7438  19.1566
    19.3052  19.3612  19.5040  19.7082  19.9580  20.1626  20.2007  20.8259
    20.8772  20.8787  21.1050  21.2511  21.2541  21.6254  22.1013  22.1134
    22.1715  22.3342  22.7166  23.0294  23.2886  23.4306  23.7540  23.7972
    24.1267  24.2017  24.3009  24.3270  25.0970  25.2554  25.4615  25.5097
    25.8362  25.8827  26.3146  27.0406  27.0530  27.2162  27.5460  27.8080
    28.1681  28.5759  28.9075  29.1689  29.2389  29.5338  29.7089  30.1885
    30.2239  30.6136  30.8503  30.9529  31.3794  31.4723  31.6837  31.7260
    32.0777  32.6408  33.1677  33.1802  33.7237  33.8863  33.8915  33.9148
    34.8488  34.9437  35.1882  35.5265  35.5426  35.7081  36.3624  36.5459
    36.9727  37.0010  37.3127  37.4299  37.6254  37.7121  38.3668  38.3916
    38.7635  38.8028  39.2369  39.2640  39.7404  39.9300  40.7902  40.8349
    40.9410  41.1917  41.5518  41.6217  41.9815  42.0433  42.2840  42.3533
    42.6838  43.0835  43.3700  44.4374  44.6571  44.7820  44.9535  45.5901
    45.9182  46.0740  46.0967  46.1055  46.7050  46.8849  47.3373  47.6516
    47.9531  48.1670  48.9172  49.0476  49.3289  49.9695  50.0530  50.7123
    50.8554  50.8947  51.5910  52.0197  52.1478  52.1862  52.5283  52.6101
    52.9491  53.2766  53.6126  53.7944  53.9655  54.3559  54.5623  54.7617
    54.8872  55.7283  55.7467  56.3791  56.7198  56.8648  57.4351  57.6194
    57.8098  57.8813  58.1860  58.2814  58.6003  58.7813  58.7871  59.0184

          k = 0.0250 0.0433 0.0000 ( 14863 PWs)   bands (ev):

   -66.6801 -40.8870 -40.6299 -40.6235 -20.1629 -18.8154 -11.7055  -8.6557
    -8.5563  -7.9946  -7.4787  -7.2826  -6.0433  -3.1184  -3.0142  -2.8874
    -2.8285  -0.2741  -0.1214   0.6007   2.2241   2.3762   3.2974   4.7227
     4.9505   5.4485   6.0200   6.6403   6.8858   7.1666   9.4653   9.9446
    10.2271  10.3326  10.4256  10.5442  10.8650  12.4438  14.2653  14.2669
    15.2968  16.2222  17.1759  17.3636  17.7827  18.2991  18.3838  18.9763
    19.2060  19.3322  19.4757  19.7083  19.9151  20.1907  20.2420  20.6942
    20.8087  20.9363  21.0658  21.2201  21.3045  21.7047  22.1275  22.1576
    22.2086  22.4297  23.0544  23.1987  23.4624  23.5151  23.7144  23.7983
    23.9672  24.1499  24.2406  24.3970  25.0965  25.3565  25.3678  25.4564
    26.0490  26.1331  26.6595  26.8354  27.1056  27.1524  27.5112  27.7452
    28.3046  28.5278  29.0026  29.2404  29.3839  29.4393  29.7396  30.2624
    30.2719  30.3344  30.8341  30.9025  31.2365  31.4741  31.8303  31.8634
    32.2589  32.6972  33.0877  33.2102  33.5845  33.8246  33.8777  33.8980
    34.9339  34.9496  35.1855  35.3630  35.5251  35.8583  36.2972  36.5894
    36.7210  37.1566  37.2469  37.4136  37.6307  37.9289  38.2059  38.4515
    38.6438  38.9434  39.3488  39.6177  39.7035  40.0163  40.6196  40.6519
    41.0972  41.1549  41.4757  41.6795  42.0358  42.1588  42.4040  42.5559
    42.8656  43.3627  43.7435  44.1897  44.4065  44.8084  44.9494  45.5989
    45.7522  45.8373  46.0333  46.3971  46.6931  46.9379  47.3093  47.7783
    47.8893  48.3092  48.9587  49.0665  49.4023  49.6944  49.9186  50.4998
    50.7905  50.8998  51.4521  51.9943  52.1337  52.1684  52.4867  52.5960
    53.0435  53.4611  53.5002  53.9638  54.0233  54.3728  54.6112  54.6737
    54.8953  55.5321  55.8481  56.4605  56.5069  56.5704  57.1808  57.5586
    57.5746  57.8576  57.9583  58.4161  58.4720  58.5465  58.6195  58.6745

          k = 0.0333 0.0577 0.0000 ( 14861 PWs)   bands (ev):

   -66.6794 -40.8857 -40.6361 -40.6250 -20.1398 -18.8060 -11.6794  -8.7067
    -8.5321  -8.0949  -7.5184  -7.2135  -6.0519  -3.1528  -2.9725  -2.9545
    -2.8559  -0.2319  -0.0923   0.7004   2.2532   2.4031   3.4006   4.6415
     5.0195   5.5067   6.0258   6.4931   6.8912   7.1508   9.4633   9.7966
    10.2558  10.3403  10.4294  10.5592  11.0419  12.5185  14.2899  14.4634
    15.3269  16.1818  17.1084  17.3522  17.3888  17.9181  18.0157  18.6352
    19.2948  19.3067  19.4560  19.6471  19.8478  19.9302  20.2523  20.2939
    20.5865  20.7988  21.2108  21.4723  21.5381  22.0269  22.1137  22.2724
    22.3403  22.5635  22.9170  23.1263  23.3283  23.6403  23.7713  23.9164
    24.0950  24.2865  24.3258  24.6290  25.1147  25.2653  25.3764  25.5005
    26.1659  26.2873  26.6919  26.7877  27.0733  27.3436  27.6129  27.7698
    28.3083  28.6201  29.0273  29.2148  29.3729  29.5780  29.7517  30.0253
    30.2789  30.3033  30.8994  30.9109  31.1325  31.5308  31.9508  32.0041
    32.3099  32.7143  33.0178  33.3724  33.4624  33.6994  33.8771  33.8833
    34.8549  34.9627  35.0968  35.4212  35.5142  35.9619  36.3683  36.5333
    36.5933  37.0359  37.3827  37.3888  37.6076  38.0429  38.3485  38.4872
    38.5100  39.0598  39.4062  39.7225  39.8644  40.1658  40.4595  40.5506
    41.0978  41.2994  41.4836  41.7905  42.1048  42.2974  42.4372  42.8260
    43.1297  43.6367  43.9737  44.0736  44.1847  44.8673  44.9405  45.4572
    45.6036  45.6307  46.1412  46.5786  46.7006  46.9003  47.2594  47.7775
    47.8413  48.6069  48.8692  49.1422  49.4330  49.4542  49.8381  50.2406
    50.7611  50.8642  51.3503  51.9661  52.0198  52.2473  52.4313  52.4818
    53.1807  53.4073  53.5875  53.9104  53.9338  54.4705  54.4935  55.0288
    55.1226  55.2092  55.9614  56.1780  56.3029  56.3081  56.9061  57.1808
    57.4023  57.7088  57.7133  57.9989  58.2009  58.3288  58.5931  58.7704

          k = 0.0417 0.0722 0.0000 ( 14853 PWs)   bands (ev):

   -66.6786 -40.8842 -40.6441 -40.6269 -20.1103 -18.7940 -11.6463  -8.7700
    -8.5015  -8.2003  -7.5699  -7.1475  -6.0642  -3.1921  -3.0336  -2.9200
    -2.8905  -0.1815  -0.0551   0.8259   2.2904   2.4375   3.5266   4.5535
     5.1041   5.5701   6.0083   6.3548   6.8978   7.1272   9.4585   9.6380
    10.2302  10.2893  10.5177  10.5852  11.2723  12.6131  14.3209  14.6936
    15.3650  16.1281  16.9277  17.0285  17.2860  17.5198  17.7869  18.3113
    19.2296  19.2369  19.4016  19.5748  19.7009  19.8574  19.8855  20.2720
    20.2753  20.5827  21.6052  21.6482  21.7027  22.0316  22.1610  22.5088
    22.6278  22.6926  22.6959  22.8370  23.2404  23.6591  23.7420  24.1978
    24.2572  24.5193  24.6340  24.9270  25.0391  25.3099  25.3882  25.6211
    26.0431  26.1823  26.7181  26.8170  27.2848  27.5214  27.7315  27.9675
    28.2219  28.7632  29.0133  29.1702  29.3260  29.6095  29.7373  29.9103
    30.2519  30.2777  30.9083  30.9906  31.1574  31.6469  31.9704  31.9843
    32.3880  32.8984  32.9607  33.3481  33.3822  33.6542  33.8488  33.9186
    34.8380  34.8988  34.9625  35.4770  35.6006  35.8738  36.5133  36.5278
    36.5959  37.0662  37.2558  37.3834  37.6220  38.0776  38.4317  38.5581
    38.6885  39.0554  39.4802  39.7356  39.7626  40.3841  40.4507  40.7839
    41.1400  41.2198  41.6980  41.9360  42.1900  42.4154  42.4575  43.0341
    43.4394  43.8174  43.8257  44.0743  44.2270  44.9246  45.0318  45.2677
    45.5555  45.5713  46.1877  46.4583  46.7152  46.9991  47.1548  47.8169
    47.8635  48.6595  48.7883  49.0604  49.4346  49.4541  49.9089  49.9699
    50.7739  50.7891  51.3479  51.6791  52.0499  52.2769  52.3365  52.4380
    53.3266  53.3612  53.3943  53.8074  53.9539  54.3756  54.6272  54.8422
    55.3017  55.4831  55.8392  55.9646  56.0906  56.2134  56.5776  56.6648
    56.9398  57.1604  57.7230  57.7951  57.9345  58.3087  58.4962  58.4969

          k = 0.0500 0.0866 0.0000 ( 14847 PWs)   bands (ev):

   -66.6776 -40.8822 -40.6536 -40.6291 -20.0745 -18.7794 -11.6068  -8.8441
    -8.4645  -8.3081  -7.6333  -7.0868  -6.0809  -3.2336  -3.1207  -2.9317
    -2.8574  -0.1243  -0.0099   0.9749   2.3354   2.4791   3.6707   4.4624
     5.2006   5.6379   5.9253   6.2770   6.9051   7.0950   9.4492   9.4781
    10.0969  10.3275  10.5986  10.6250  11.5456  12.7261  14.3568  14.9454
    15.4101  16.0594  16.5124  16.8975  17.0076  17.1219  17.7720  18.0414
    18.8410  19.1142  19.2966  19.4433  19.5869  19.6930  19.8654  20.0382
    20.2962  20.4682  21.6852  21.7465  21.7831  22.0827  22.0878  22.4171
    22.6431  22.7391  22.9079  23.1211  23.1597  23.4843  23.9908  24.2758
    24.6932  24.7143  24.7485  24.8841  25.3185  25.3493  25.5056  25.8488
    25.8586  26.0295  26.6795  27.0295  27.3597  27.6484  28.0587  28.0869
    28.1512  28.8247  29.0033  29.2073  29.2820  29.3971  29.7357  30.0450
    30.1764  30.2750  30.9443  30.9615  31.3603  31.7541  31.7846  31.9270
    32.6372  32.9401  33.0655  33.1663  33.3432  33.7276  33.7982  33.9941
    34.6709  34.7747  35.1625  35.3976  35.7049  35.7453  36.5333  36.5451
    36.7845  37.0727  37.2000  37.4824  37.6725  37.8666  38.6029  38.7285
    38.9098  38.9729  39.4542  39.5854  39.8248  40.5855  40.6608  41.0836
    41.0873  41.2970  41.9344  42.0895  42.2876  42.4239  42.4729  43.1727
    43.7395  43.7530  43.8452  44.1551  44.1753  44.8965  45.1674  45.3810
    45.4149  45.6833  46.0486  46.4630  46.7322  46.8570  47.2833  47.6710
    47.9826  48.4291  48.7176  49.0550  49.4618  49.4682  49.7689  50.1334
    50.7210  50.7536  51.3774  51.4270  52.0672  52.0678  52.4053  52.4600
    53.0817  53.3088  53.4840  53.6074  53.9956  54.1428  54.3505  55.0749
    55.1567  55.5881  55.6569  55.9606  55.9632  56.1689  56.1943  56.3834
    56.5373  56.7243  57.5693  57.6699  57.6755  57.8586  58.2112  58.2327

          k = 0.0583 0.1010 0.0000 ( 14825 PWs)   bands (ev):

   -66.6765 -40.8800 -40.6647 -40.6318 -20.0326 -18.7623 -11.5613  -8.9272
    -8.4217  -8.4166  -7.7087  -7.0324  -6.1027  -3.2746  -3.2122  -2.9786
    -2.7857  -0.0610   0.0434   1.1445   2.3882   2.5278   3.8270   4.3709
     5.3044   5.7104   5.7741   6.2697   6.9133   7.0557   9.3249   9.4311
     9.9454  10.3691  10.6780  10.6806  11.8500  12.8552  14.3939  15.2025
    15.4592  15.9723  16.1111  16.5563  16.7388  16.8495  17.7279  17.9468
    18.4316  18.8905  18.9307  19.1033  19.6106  19.7688  19.8710  19.9415
    20.3245  20.4289  21.4376  21.7164  21.7432  21.8352  22.2694  22.3022
    22.8227  22.8276  22.9214  23.1773  23.5646  23.6353  24.3059  24.3342
    24.7030  24.7226  24.8187  25.0772  25.2060  25.5289  25.7724  25.9761
    25.9818  26.1837  26.6412  27.2555  27.2856  27.8817  27.9212  28.0995
    28.4252  28.7680  28.9891  29.2630  29.2798  29.3954  29.7929  29.9978
    30.2545  30.2567  30.8990  31.0379  31.5217  31.6991  31.7620  31.8526
    32.7316  32.9989  33.0174  33.2884  33.3268  33.6826  33.8847  34.0878
    34.5942  34.6114  35.3237  35.4116  35.5381  35.8525  36.4982  36.5848
    36.9603  37.0186  37.2433  37.6241  37.6704  37.8961  38.6096  38.7317
    39.0400  39.1644  39.2193  39.7001  39.9630  40.8066  40.8645  41.0357
    41.1953  41.6686  42.1482  42.1932  42.2982  42.3915  42.5258  43.2895
    43.7196  43.7413  43.9815  44.1066  44.4275  44.8391  45.0840  45.2094
    45.7234  45.9682  45.9856  46.4188  46.7505  46.8298  47.3174  47.4033
    48.0987  48.1908  48.6611  49.0727  49.3394  49.4053  49.8224  50.3936
    50.5909  50.6647  51.3320  51.3641  51.9544  52.0653  52.4639  52.4847
    52.9008  53.0183  53.3275  53.4788  53.6938  54.2161  54.3292  54.7357
    55.1392  55.2349  55.2646  55.7070  55.8712  56.0602  56.3985  56.4365
    56.4663  56.5091  57.0960  57.2227  57.4509  57.6461  57.8045  58.0977

          k = 0.0667 0.1155 0.0000 ( 14815 PWs)   bands (ev):

   -66.6752 -40.8775 -40.6770 -40.6350 -19.9848 -18.7428 -11.5106  -9.0174
    -8.5244  -8.3735  -7.7960  -6.9851  -6.1307  -3.3125  -3.3046  -3.0303
    -2.7060   0.0080   0.1045   1.3314   2.4490   2.5833   3.9883   4.2805
     5.4095   5.5993   5.7880   6.2946   6.9226   7.0130   9.1857   9.3932
     9.7885  10.4129  10.7527  10.7606  12.1758  12.9979  14.4242  15.4124
    15.5057  15.7481  15.8574  16.1718  16.4029  16.7128  17.6019  18.0233
    18.0283  18.5309  18.5877  18.7390  19.6376  19.8517  19.8582  19.9638
    20.3502  20.4446  21.0999  21.4143  21.6922  21.6992  22.2374  22.3929
    22.6722  22.8692  23.2696  23.2846  23.9473  23.9974  24.4002  24.5335
    24.5806  24.6825  24.7956  24.9906  25.4413  25.5030  26.0968  26.1421
    26.4290  26.4456  26.6049  27.2365  27.5140  27.6846  28.0066  28.0627
    28.4011  28.7600  28.9948  29.3441  29.3607  29.6366  29.8963  29.9123
    30.2229  30.3711  30.7569  31.1871  31.5115  31.6810  31.7619  31.8706
    32.5402  33.1217  33.2029  33.3086  33.3283  33.6655  34.0743  34.1103
    34.5348  34.6149  35.2857  35.4047  35.5793  35.9193  36.4877  36.6663
    36.9699  37.1171  37.2451  37.6587  37.6663  38.2765  38.4349  38.7501
    38.9202  39.2976  39.4349  39.7801  40.2221  40.7025  41.0352  41.2830
    41.3535  41.9950  42.0717  42.1530  42.4020  42.5445  42.6711  43.3157
    43.6193  43.8388  43.8732  44.4070  44.5643  44.7210  44.8817  45.2803
    45.9592  46.0544  46.2651  46.3229  46.7444  46.9357  47.1593  47.2687
    47.9938  48.1460  48.6472  49.1244  49.1904  49.2477  49.9768  50.1491
    50.6103  50.8769  51.1528  51.2840  52.0399  52.0629  52.4649  52.4816
    52.6337  52.6930  52.9227  53.4066  53.7813  54.0431  54.2140  54.3705
    54.7004  55.0269  55.1365  55.4130  55.5687  55.9856  56.2033  56.2774
    56.5339  56.7910  56.8213  56.8911  57.2831  57.4087  57.4948  57.7087

          k = 0.0750 0.1299 0.0000 ( 14827 PWs)   bands (ev):

   -66.6738 -40.8747 -40.6907 -40.6385 -19.9313 -18.7210 -11.4554  -9.1127
    -8.6307  -8.3206  -7.8947  -6.9450  -6.1656  -3.3952  -3.3454  -3.0854
    -2.6194   0.0826   0.1733   1.5321   2.5182   2.6452   4.1447   4.1926
     5.4289   5.5088   5.8699   6.3301   6.9345   6.9739   9.0671   9.3069
     9.6573  10.4577  10.8414  10.8496  12.5156  13.1514  14.4327  15.2633
    15.5022  15.6586  15.6629  15.8560  16.2295  16.5800  17.5162  17.6219
    18.0709  18.1958  18.2492  18.3761  19.6682  19.8286  19.9047  20.0171
    20.3888  20.4884  20.7874  21.0424  21.5377  21.6159  22.2478  22.4510
    22.5179  22.9114  23.3999  23.6892  24.1202  24.1928  24.4233  24.4616
    24.5658  24.6704  24.9854  25.1553  25.4531  25.6734  26.3785  26.4604
    26.5603  26.5622  26.9387  27.3892  27.4057  27.7253  27.9169  27.9937
    28.3216  28.7573  29.0094  29.3839  29.5467  29.8850  29.9712  30.0411
    30.2108  30.4579  30.5928  31.3140  31.5180  31.6227  31.6840  31.9119
    32.5385  33.0382  33.2099  33.3803  33.5535  33.7348  33.8756  34.3469
    34.6101  34.7522  35.2396  35.4074  35.5776  35.9355  36.5777  36.7362
    37.0651  37.1175  37.2234  37.6728  37.8633  38.2708  38.5020  38.8254
    38.9423  39.4616  39.6773  39.8539  40.4041  40.6246  41.1964  41.3626
    41.6137  41.9969  42.0346  42.2038  42.6245  42.6283  42.9554  43.2699
    43.6275  43.7781  43.8336  44.3692  44.6857  44.7705  45.0392  45.3619
    45.9661  46.1234  46.1348  46.5679  46.6823  46.9945  47.2867  47.2939
    47.8516  48.0615  48.6812  48.9429  49.1223  49.2516  49.8693  49.9417
    50.6650  50.8477  51.1795  51.2576  51.8311  51.8412  52.2631  52.4268
    52.5989  52.7567  52.8055  53.3912  53.4742  53.7785  53.8261  54.2349
    54.5397  54.8965  54.9636  55.0930  55.4211  55.6319  55.7190  56.0838
    56.3963  56.5901  56.8455  56.9547  57.0726  57.1786  57.3936  57.4994

          k = 0.0833 0.1443 0.0000 ( 14803 PWs)   bands (ev):

   -66.6722 -40.8717 -40.7053 -40.6425 -19.8723 -18.6970 -11.3967  -9.2111
    -8.7346  -8.2637  -8.0041  -6.9124  -6.2081  -3.4817  -3.3716  -3.1422
    -2.5274   0.1628   0.2496   1.7426   2.5966   2.7130   4.1077   4.2803
     5.2827   5.5953   5.9519   6.3663   6.9498   6.9518   8.9744   9.1454
     9.5823  10.5022  10.9458  10.9465  12.8629  13.3126  14.3951  14.9169
    15.2799  15.3099  15.7007  15.7406  16.3344  16.4729  17.2311  17.4479
    17.7474  17.9038  17.9910  18.2877  19.6975  19.7487  19.8962  20.0851
    20.4186  20.4941  20.5531  20.7670  21.3738  21.4597  22.2708  22.4340
    22.5102  22.9578  23.5544  23.8558  23.8747  24.3199  24.3638  24.4294
    24.6311  24.9338  25.2798  25.3953  25.6415  25.7720  26.4275  26.4993
    26.6864  26.8937  27.1929  27.4561  27.5547  27.6050  27.8737  27.9875
    28.5098  28.7257  28.9747  29.2770  29.7777  30.0121  30.0442  30.0879
    30.3596  30.5962  30.6286  31.3014  31.4574  31.5050  31.8195  31.8692
    32.7230  32.8937  33.2030  33.4516  33.6749  33.7528  33.8728  34.4797
    34.6486  35.0327  35.2312  35.5085  35.5796  35.8763  36.6917  36.7244
    37.0668  37.1898  37.3878  37.6443  38.1154  38.1948  38.4641  38.9019
    39.3684  39.5734  39.8508  40.0218  40.2407  40.7844  41.2745  41.2996
    41.7176  42.0028  42.2058  42.3127  42.6437  42.8612  43.1734  43.2411
    43.4750  43.7801  43.8724  44.3384  44.9307  44.9314  45.2135  45.4380
    45.8623  45.9653  46.0248  46.4309  47.0146  47.0753  47.4355  47.5355
    47.8842  47.9079  48.5929  48.6960  49.1232  49.3470  49.6319  49.7015
    50.4950  50.7206  51.0749  51.1877  51.5466  51.6973  52.2689  52.2863
    52.7052  52.7476  52.8673  53.1035  53.2608  53.4853  53.7014  54.0849
    54.4509  54.5428  54.7896  54.9883  55.1832  55.3823  55.3996  55.8506
    56.1651  56.2450  56.5147  56.5201  56.8815  57.1720  57.6069  57.6108

          k = 0.0917 0.1588 0.0000 ( 14809 PWs)   bands (ev):

   -66.6705 -40.8684 -40.7210 -40.6469 -19.8082 -18.6709 -11.3359  -9.3103
    -8.8356  -8.2040  -8.1233  -6.8872  -6.2582  -3.5627  -3.3901  -3.1987
    -2.4312   0.2486   0.3334   1.9581   2.6861   2.7862   4.0257   4.3697
     5.1861   5.6629   6.0260   6.3965   6.9547   6.9790   8.9116   8.9285
     9.5479  10.5454  11.0523  11.0647  13.2093  13.4785  14.2861  14.5713
    14.9290  14.9522  15.6169  15.8255  16.4034  16.5425  16.8596  17.2373
    17.5611  17.5761  17.6470  18.3843  19.5525  19.7264  19.8516  20.1569
    20.1596  20.4450  20.5364  20.7763  21.2238  21.2644  22.2978  22.4204
    22.5548  23.0107  23.5295  23.6868  23.7362  24.3141  24.3583  24.5738
    24.8643  24.9925  25.6092  25.6787  25.8462  25.9422  26.2647  26.5606
    26.9069  27.0337  27.0569  27.4255  27.6179  27.8592  27.9805  28.3220
    28.6553  28.8561  28.9010  29.1215  29.8533  29.8883  30.1054  30.1752
    30.5954  30.7067  31.0136  31.2421  31.3228  31.4247  31.7428  32.1542
    32.7124  33.0419  33.1060  33.4036  33.6522  33.9194  34.0157  34.5666
    34.6342  35.2594  35.2716  35.5650  35.7869  35.8946  36.5964  36.7866
    37.1445  37.1463  37.6087  37.7466  38.1772  38.3475  38.4949  39.0189
    39.6495  39.8542  39.9359  40.0567  40.2763  40.8021  41.0435  41.3296
    41.9568  41.9778  42.3580  42.4131  42.7634  42.8599  43.1067  43.3706
    43.4348  43.8709  44.2038  44.2617  45.0927  45.2527  45.2858  45.4762
    45.5727  45.9249  45.9829  46.2941  47.1185  47.4187  47.5791  47.5909
    47.7631  48.1313  48.3618  48.6364  49.1196  49.2578  49.3486  49.7009
    50.0852  50.2641  50.6204  51.3050  51.5244  51.8099  52.1351  52.2220
    52.3701  52.5958  52.6642  53.2215  53.3338  53.4765  53.6421  53.8794
    54.0790  54.3294  54.6305  54.8457  55.0573  55.2453  55.2659  55.5898
    55.8671  55.8851  56.1036  56.1926  56.5691  57.2340  57.2436  57.3925

          k = 0.1000 0.1732 0.0000 ( 14805 PWs)   bands (ev):

   -66.6688 -40.8649 -40.7373 -40.6517 -19.7391 -18.6428 -11.2744  -9.4081
    -8.9334  -8.2508  -8.1429  -6.8693  -6.3158  -3.6376  -3.4002  -3.2524
    -2.3324   0.3400   0.4243   2.1726   2.7897   2.8640   3.9461   4.3848
     5.1648   5.7063   6.0858   6.4163   6.9998   7.0210   8.6851   8.8804
     9.5316  10.5868  11.1670  11.1966  13.5336  13.6457  14.0989  14.2572
    14.5513  14.6021  15.5747  15.9142  16.3771  16.4652  16.7398  16.8822
    17.3220  17.3339  17.5461  18.4650  19.2750  19.7301  19.7609  19.8362
    20.2276  20.4397  20.5648  20.8885  21.0839  21.1147  22.3294  22.4300
    22.5866  23.0419  23.2359  23.4372  23.9248  24.2729  24.3467  24.6457
    24.9649  25.1724  25.6855  25.9228  25.9415  26.0845  26.3559  26.7007
    26.8651  26.9718  27.0078  27.5321  27.6231  28.1593  28.4567  28.6029
    28.6700  28.8527  28.9630  29.2024  29.7131  29.7560  30.2921  30.3033
    30.6768  30.8027  31.1725  31.2969  31.4652  31.4683  31.6443  32.4092
    32.7092  32.9659  33.2378  33.3975  33.6607  33.9611  34.2005  34.6510
    34.7026  35.2821  35.2979  35.6416  35.9733  36.2499  36.4624  36.8729
    37.0373  37.2802  37.6203  38.1210  38.2037  38.5367  38.5848  39.1829
    39.6469  39.9496  40.0234  40.3015  40.4317  40.7956  40.8505  41.3131
    41.8747  42.1710  42.3980  42.4017  42.6974  42.9929  43.2273  43.5704
    43.6052  43.9343  44.0710  44.7042  44.9959  45.2729  45.4817  45.5597
    45.5905  45.8546  46.0217  46.1625  47.2627  47.4148  47.6203  47.6477
    47.7893  48.0951  48.3619  48.6933  49.0196  49.0763  49.2569  49.5715
    49.7787  49.8868  50.1389  51.3962  51.5025  51.6650  51.7318  51.9795
    52.3547  52.4910  52.7280  53.0600  53.2182  53.5397  53.6224  53.8129
    54.1238  54.1902  54.2829  54.8056  54.8457  55.1260  55.1474  55.3516
    55.6149  55.7023  55.7410  55.9383  56.2351  56.7338  56.9300  57.3024

          k = 0.1083 0.1876 0.0000 ( 14787 PWs)   bands (ev):

   -66.6669 -40.8613 -40.7543 -40.6569 -19.6656 -18.6128 -11.2140  -9.5019
    -9.0279  -8.3848  -8.0821  -6.8586  -6.3798  -3.7063  -3.4016  -3.3008
    -2.2323   0.4371   0.5222   2.3778   2.9124   2.9454   3.8681   4.3289
     5.2135   5.7214   6.1331   6.4247   7.0810   7.0834   8.4342   8.8800
     9.5243  10.6259  11.2902  11.3398  13.6963  13.7950  13.8598  14.0808
    14.1910  14.2855  15.5355  15.9593  16.1647  16.3994  16.5169  16.6559
    17.0356  17.3535  17.5615  18.5161  18.9621  19.4242  19.6915  19.7703
    20.2779  20.4778  20.5284  20.9765  21.0209  21.0833  22.3648  22.4041
    22.6090  22.8271  23.2018  23.2484  24.1241  24.2251  24.2944  24.6797
    24.9154  25.3761  25.6301  25.6666  26.0933  26.2601  26.5518  26.6362
    26.8475  27.0863  27.2154  27.6246  27.8493  28.4484  28.4853  28.7181
    28.7730  28.9767  29.1169  29.4295  29.6622  29.7820  30.4091  30.4906
    30.4972  30.9104  31.1191  31.4267  31.5114  31.6383  31.9458  32.4653
    32.7850  32.9842  33.3849  33.4823  33.6361  33.8564  34.4320  34.7243
    34.9034  35.2648  35.2721  35.6948  36.2029  36.3473  36.7840  36.9040
    36.9614  37.4324  37.6796  38.2616  38.4513  38.6650  38.6738  39.3809
    39.5547  39.9337  40.1275  40.3382  40.4898  40.9783  40.9856  41.2074
    41.7933  41.9503  42.4553  42.4700  42.8324  43.2121  43.3957  43.6549
    43.7529  43.9073  44.1681  44.7475  45.2108  45.2493  45.4728  45.6045
    45.7271  45.9084  46.1108  46.1899  47.2049  47.3078  47.5442  47.5798
    47.8838  48.0675  48.2348  48.6268  48.6990  49.1239  49.2540  49.4655
    49.4897  49.7635  50.0562  50.9494  51.0747  51.6191  51.6712  51.8647
    52.2036  52.6373  52.6736  52.8381  52.9952  53.5568  53.5667  53.7497
    53.9565  54.1851  54.4746  54.6283  54.6338  54.8965  55.1112  55.1729
    55.3919  55.4026  55.6721  55.7811  55.9630  56.4203  56.6076  57.0606

          k = 0.1167 0.2021 0.0000 ( 14793 PWs)   bands (ev):

   -66.6650 -40.8575 -40.7716 -40.6626 -19.5879 -18.5811 -11.1571  -9.5890
    -9.1196  -8.5233  -8.0238  -6.8550  -6.4485  -3.7692  -3.3945  -3.3412
    -2.1325   0.5397   0.6267   2.5646   3.0289   3.0601   3.7904   4.2359
     5.2964   5.7096   6.1751   6.4252   7.1596   7.1836   8.1984   8.9064
     9.5235  10.6629  11.4210  11.4925  13.5025  13.5577  13.7685  13.8522
    14.0417  14.3922  15.4515  15.7308  16.0853  16.1502  16.4689  16.4872
    16.8030  17.5493  17.5820  18.5322  18.6437  19.0785  19.5879  19.7421
    20.3121  20.4419  20.5176  20.9832  21.1054  21.1800  22.2757  22.3563
    22.5710  22.6493  23.1666  23.2706  24.1553  24.2122  24.3167  24.6728
    24.8545  25.4004  25.4442  25.5442  26.0814  26.1866  26.4485  26.7860
    27.1934  27.3114  27.3813  27.8336  28.1935  28.4125  28.4209  28.5578
    28.9726  29.0838  29.4151  29.7104  29.7148  30.0644  30.3330  30.5119
    30.6611  30.9370  31.1491  31.3274  31.7053  31.8455  32.3621  32.4012
    32.9218  33.0618  33.4489  33.5784  33.7507  33.7693  34.6246  34.7994
    34.9762  35.2321  35.4336  35.8234  36.1138  36.6910  36.7361  37.0658
    37.2967  37.5686  37.7612  38.3398  38.6840  38.6963  38.7598  39.4578
    39.4993  39.9368  40.2667  40.2734  40.6080  40.9437  40.9647  41.4616
    41.7802  41.8747  42.4597  42.5192  43.0717  43.2198  43.4219  43.6497
    43.9213  43.9427  44.4472  44.7577  45.1255  45.3560  45.5502  45.5628
    45.8947  45.9282  46.2434  46.4721  46.9742  47.2556  47.2689  47.5484
    47.7595  47.8606  48.1014  48.4395  48.4474  49.1506  49.3632  49.4366
    49.4483  49.6973  50.3033  50.4367  50.6705  51.4277  51.4624  51.8747
    52.2446  52.3832  52.4097  52.9903  52.9984  53.2232  53.2959  53.6547
    54.0635  54.2401  54.2414  54.3912  54.6282  54.9299  54.9512  55.0770
    55.2795  55.2821  55.4069  55.8492  55.8854  56.2306  56.4057  56.7804

          k = 0.1250 0.2165 0.0000 ( 14783 PWs)   bands (ev):

   -66.6630 -40.8536 -40.7892 -40.6687 -19.5064 -18.5479 -11.1062  -9.6664
    -9.2095  -8.6634  -7.9710  -6.8583  -6.5192  -3.8267  -3.3792  -3.3718
    -2.0342   0.6476   0.7375   2.7267   3.1125   3.2345   3.7126   4.1344
     5.3845   5.6796   6.2149   6.4239   7.2471   7.2547   8.0260   8.9522
     9.5293  10.6993  11.5574  11.6527  13.2364  13.2492  13.4369  13.5160
    14.1947  14.6915  15.2952  15.4202  15.8023  15.9020  16.4645  16.5793
    16.6746  17.5927  17.7561  18.3434  18.5007  18.7782  19.4208  19.7081
    20.3434  20.3619  20.5491  21.0858  21.1827  21.3249  22.0728  22.1238
    22.5562  22.7038  23.1690  23.3218  24.0717  24.1136  24.4173  24.6007
    24.8015  25.2444  25.4186  25.4667  25.9084  25.9801  26.4734  27.1094
    27.3532  27.4213  27.6876  28.1086  28.2920  28.3258  28.4123  28.6522
    28.9860  29.0981  29.6828  29.9463  30.0085  30.0866  30.5688  30.7014
    30.7324  30.9124  31.2383  31.3398  31.9265  32.0018  32.4277  32.6971
    33.0422  33.1044  33.3807  33.6191  33.8540  34.0977  34.7505  34.7569
    34.9434  35.2690  35.8218  35.9803  36.0517  36.7060  36.9182  37.2212
    37.6602  37.7543  37.8660  38.4404  38.6572  38.8074  38.8278  39.3642
    39.4404  39.9424  40.4529  40.4590  40.7220  40.7553  40.8469  41.7111
    41.8775  41.9558  42.5981  42.6092  42.9592  43.1858  43.3712  43.5842
    44.0798  44.2980  44.5983  44.8651  45.0575  45.1876  45.5149  45.5891
    45.8980  46.1639  46.5165  46.5733  46.8745  47.0728  47.1714  47.2589
    47.5184  47.6007  47.8939  48.3426  48.6115  49.0484  49.1283  49.2976
    49.5755  50.0034  50.0662  50.2726  50.7995  51.1462  51.2346  51.7752
    52.1783  52.1851  52.3672  52.6237  52.8005  53.2034  53.2236  53.6164
    53.6944  54.1730  54.1753  54.2535  54.4808  54.6963  54.9854  55.0194
    55.2270  55.4121  55.4370  55.8631  55.9202  56.1264  56.3841  56.5213

          k = 0.1333 0.2309 0.0000 ( 14781 PWs)   bands (ev):

   -66.6609 -40.8496 -40.8069 -40.6752 -19.4216 -18.5133 -11.0643  -9.7309
    -9.2993  -8.8013  -7.9273  -6.8685  -6.5886  -3.8786  -3.3912  -3.3562
    -1.9390   0.7608   0.8543   2.8653   3.1930   3.4250   3.6388   4.0414
     5.4638   5.6435   6.2482   6.4266   7.1924   7.3639   7.9961   9.0067
     9.5433  10.7379  11.6957  11.8179  12.9313  12.9776  13.0972  13.1865
    14.3689  14.9447  15.0698  15.1672  15.4687  15.6125  16.4959  16.5868
    16.8139  17.5768  17.8347  18.1638  18.3305  18.6475  19.2182  19.6360
    20.3347  20.3793  20.5651  21.2420  21.2734  21.4657  21.8364  21.8627
    22.6289  22.7543  23.2099  23.3006  24.0121  24.0138  24.2670  24.4564
    24.8804  25.2442  25.2985  25.4573  25.6299  25.9243  26.4866  27.3739
    27.4891  27.5035  27.8058  28.0802  28.0871  28.5223  28.6740  28.8830
    28.9498  29.1809  29.8144  29.8826  30.2668  30.3966  30.7530  30.8492
    30.8749  31.0854  31.2766  31.6109  32.0791  32.1656  32.5404  32.8934
    32.9784  33.2002  33.4705  33.7029  34.0462  34.4705  34.6114  34.7441
    35.0659  35.4142  35.9544  36.1390  36.2603  36.8351  37.0132  37.3941
    37.7122  37.9224  38.0930  38.5756  38.6574  38.8409  38.9395  39.2407
    39.3697  39.9558  40.3953  40.4517  40.8706  40.9129  41.0584  41.7222
    41.8624  42.1773  42.4680  42.8758  42.9830  43.1149  43.4389  43.4711
    44.2240  44.3935  44.7551  44.9406  44.9414  45.0655  45.4296  45.6024
    46.0216  46.0765  46.4661  46.6737  46.8180  46.8523  47.1344  47.1650
    47.4804  47.6503  47.7476  48.2218  48.5382  48.8222  49.0868  49.1807
    49.5313  49.9258  50.0893  50.5549  50.7622  51.0441  51.2390  51.5704
    51.8767  52.0389  52.3678  52.3737  52.4614  53.1657  53.2170  53.4266
    53.5392  53.8975  53.9930  54.1171  54.3368  54.5665  55.0219  55.0454
    55.2504  55.4714  55.5927  55.7905  55.8761  56.2972  56.3186  56.3728

          k = 0.1417 0.2453 0.0000 ( 14775 PWs)   bands (ev):

   -66.6589 -40.8456 -40.8244 -40.6821 -19.3339 -18.4776 -11.0344  -9.7796
    -9.3924  -8.9322  -7.8969  -6.8854  -6.6523  -3.9239  -3.3993  -3.3263
    -1.8479   0.8788   0.9767   2.9832   3.2655   3.5210   3.6709   3.9683
     5.5301   5.6128   6.2627   6.4367   7.0283   7.4848   8.1057   9.0560
     9.5679  10.7833  11.8276  11.9827  12.6151  12.7288  12.7666  12.8874
    14.5467  14.7838  14.7966  15.1493  15.2561  15.3766  16.4227  16.7473
    16.9920  17.5168  17.6258  18.0844  18.2415  18.6644  19.0187  19.5217
    20.3601  20.4132  20.5486  21.3359  21.4258  21.5271  21.6766  21.6965
    22.7086  22.7852  23.1635  23.2591  23.9165  23.9829  24.0563  24.2761
    24.9522  25.1498  25.3508  25.4298  25.4933  25.9050  26.4806  27.4681
    27.5256  27.6512  27.7924  27.8534  28.0038  28.8280  28.8783  28.9709
    29.1075  29.1904  29.8958  29.9889  30.3968  30.6697  30.7766  30.9743
    31.0196  31.4959  31.6118  31.8411  32.1152  32.4414  32.6272  32.9032
    32.9682  33.3606  33.6980  33.7811  34.2991  34.4195  34.6634  34.8963
    35.3095  35.6030  35.8684  36.2889  36.6679  37.0677  37.0685  37.4760
    37.7908  38.0106  38.0147  38.6181  38.7967  38.9791  39.0532  39.2197
    39.3814  39.9873  40.1190  40.4252  41.1319  41.2757  41.3146  41.6602
    41.9482  42.0091  42.3922  42.9003  43.1800  43.2050  43.3821  43.6160
    44.2409  44.2794  44.4200  44.8134  45.0882  45.2320  45.4053  45.6306
    45.7582  45.9072  46.4475  46.7078  46.7141  46.8019  47.1496  47.2150
    47.5370  47.6798  47.9105  48.1592  48.3277  48.5111  48.9979  49.3230
    49.5157  49.7731  50.3200  50.4176  50.8677  50.9490  51.3176  51.4509
    51.5213  51.7294  52.3100  52.3352  52.4720  52.9418  53.1463  53.3303
    53.3802  53.6100  53.7975  53.8747  54.2803  54.6507  54.8324  55.1361
    55.3454  55.5233  55.5284  55.6737  55.6944  56.2561  56.3011  56.5353

          k = 0.1500 0.2598 0.0000 ( 14771 PWs)   bands (ev):

   -66.6568 -40.8417 -40.8415 -40.6894 -19.2438 -18.4408 -11.0185  -9.8104
    -9.4930  -9.0501  -7.8842  -6.9089  -6.7061  -3.9610  -3.3971  -3.2903
    -1.7622   1.0013   1.1042   3.0749   3.3234   3.4644   3.8672   3.9250
     5.5855   5.5963   6.2325   6.4547   6.8502   7.6154   8.2795   9.0848
     9.6059  10.8403  11.9300  12.1112  12.3292  12.4585  12.4635  12.6727
    14.4975  14.5242  14.7255  14.8418  14.9793  15.6001  16.3723  16.9229
    17.1205  17.3571  17.4277  17.8868  18.3060  18.7453  18.8807  19.3899
    20.3936  20.3955  20.5237  21.2015  21.5555  21.5964  21.6347  21.7833
    22.7370  22.7829  22.9664  23.2914  23.7682  23.8187  24.1108  24.1310
    24.8538  25.0122  25.3577  25.5515  25.5702  25.8999  26.4476  27.4162
    27.5474  27.6259  27.6549  27.8759  27.9379  28.9298  28.9514  29.1297
    29.1767  29.3174  29.9821  30.1399  30.6377  30.7139  30.9637  31.0071
    31.3727  31.8448  32.0334  32.0475  32.1353  32.5316  32.8902  32.9040
    33.0559  33.6053  33.7742  33.9073  34.4367  34.4873  34.6679  35.1578
    35.6226  35.6704  36.0510  36.4120  36.8715  37.2383  37.2439  37.5093
    37.8924  37.9203  38.1095  38.5823  38.6883  39.0048  39.2739  39.3366
    39.6781  39.8746  40.0083  40.5439  41.2487  41.3648  41.5700  41.6265
    41.9704  42.1420  42.3480  42.8495  42.9688  43.1644  43.5970  43.6586
    44.1171  44.2244  44.2971  44.7347  44.9122  45.1165  45.4016  45.4043
    45.8250  46.0693  46.4132  46.4643  46.7337  46.9714  47.0891  47.1496
    47.4130  47.7660  48.0961  48.2198  48.2869  48.5666  49.0257  49.1593
    49.6754  49.8195  50.0041  50.6700  50.6732  50.8164  51.0326  51.0678
    51.5809  51.8987  52.2130  52.4908  52.5569  52.6289  53.1021  53.1917
    53.2476  53.3518  53.6066  53.6915  54.3402  54.5870  54.7729  55.1345
    55.2088  55.2787  55.3557  55.5685  55.7167  56.1347  56.1672  56.4560

          k = 0.1583 0.2742 0.0000 ( 14773 PWs)   bands (ev):

   -66.6547 -40.8584 -40.8374 -40.6971 -19.1519 -18.4032 -11.0174  -9.8228
    -9.6050  -9.1497  -7.8930  -6.9388  -6.7461  -3.9878  -3.3860  -3.2492
    -1.6827   1.1277   1.2363   3.1110   3.3605   3.4383   3.9197   4.0677
     5.6007   5.6351   6.1218   6.4786   6.7335   7.7541   8.4744   9.0797
     9.6598  10.9103  11.9448  11.9467  12.1049  12.1938  12.4027  12.5908
    14.1898  14.2825  14.5442  14.6784  14.8998  15.8272  16.3346  17.0437
    17.0455  17.1500  17.4353  17.7750  18.2438  18.8623  18.8758  19.2670
    20.2646  20.3671  20.5556  21.0298  21.5968  21.6648  21.8266  21.9018
    22.5723  22.7367  22.8819  23.2835  23.6259  23.7054  24.0885  24.1755
    24.6821  24.9061  25.4284  25.6169  25.7770  25.8995  26.3751  27.2631
    27.4595  27.5493  27.6441  27.8739  27.9458  28.7758  29.0988  29.1492
    29.3448  29.4315  29.9246  30.4287  30.7609  30.9478  31.0744  31.2498
    31.7359  31.8173  32.2093  32.3835  32.4843  32.5725  32.9228  33.1085
    33.3769  33.7451  33.8567  34.1168  34.3450  34.6153  35.0102  35.2523
    35.7070  35.9583  36.4847  36.4938  36.9104  37.1078  37.3975  37.6494
    38.0154  38.0747  38.2694  38.3974  38.7247  39.0113  39.2999  39.4619
    39.6360  40.0082  40.2281  40.7926  40.9854  41.3266  41.6959  41.7986
    42.1210  42.2287  42.3196  42.8335  42.8577  42.9148  43.3993  43.4981
    44.0642  44.2654  44.4339  44.5275  44.8689  44.9425  45.1490  45.4668
    45.9504  46.1643  46.3495  46.5168  46.6403  46.6996  47.0864  47.1785
    47.4806  47.7051  48.0897  48.5023  48.5806  48.8401  48.9688  49.1419
    49.6845  49.7324  49.9898  50.1718  50.6628  50.7384  50.8038  50.9779
    51.6295  52.1216  52.2155  52.3270  52.4330  52.7986  52.9714  53.0491
    53.1913  53.2130  53.4790  53.6362  54.3343  54.4569  54.5926  54.9621
    54.9665  55.0556  55.2617  55.6555  55.6584  55.9628  56.0043  56.6374

          k = 0.1666 0.2886 0.0000 ( 14767 PWs)   bands (ev):

   -66.6526 -40.8746 -40.8333 -40.7052 -19.0587 -18.3651 -11.0300  -9.8182
    -9.7294  -9.2285  -7.9249  -6.9749  -6.7705  -4.0023  -3.3679  -3.2040
    -1.6101   1.2572   1.3726   3.0640   3.3777   3.4826   3.9531   4.2536
     5.6301   5.6852   5.9365   6.5054   6.6913   7.8994   8.6705   9.0331
     9.7301  10.9844  11.6612  11.7923  11.8147  12.0038  12.5593  12.6417
    13.8830  14.0674  14.2568  14.3878  15.0622  16.0133  16.3023  16.8348
    16.8384  17.2666  17.4321  17.7884  18.1201  18.9109  19.0330  19.1835
    20.0833  20.2332  20.6133  20.9194  21.6475  21.7770  21.9699  22.0137
    22.3979  22.6435  22.7973  23.2406  23.5995  23.6128  24.1236  24.1410
    24.6295  24.8461  25.5242  25.6774  25.9021  25.9463  26.2590  27.1148
    27.3614  27.4036  27.7534  27.8160  27.9657  28.6440  29.1487  29.1962
    29.4213  29.4663  29.9234  30.6368  30.8521  31.0881  31.3615  31.5133
    31.7719  32.0779  32.3130  32.4866  32.7218  32.9239  33.1024  33.2258
    33.6335  33.9944  34.0324  34.2093  34.3775  34.8201  35.2800  35.4090
    35.8373  36.2067  36.5952  36.8403  36.9477  36.9966  37.4427  37.7331
    38.1269  38.1876  38.4726  38.5583  38.6970  39.0075  39.3130  39.5594
    39.5904  40.0132  40.4102  40.9586  40.9894  41.4952  41.6430  41.7679
    41.9674  42.0692  42.6064  42.6509  42.7542  42.8193  43.1606  43.6618
    43.8903  43.9074  44.3403  44.4449  44.7128  45.2422  45.3247  45.3384
    46.0429  46.0911  46.1987  46.3883  46.4502  46.8004  47.0871  47.3496
    47.3543  47.8657  48.3406  48.7003  48.7367  48.9312  49.0311  49.2367
    49.5617  49.6292  49.8286  50.0444  50.5091  50.5628  50.9313  51.1174
    51.4778  52.0192  52.0541  52.2915  52.5276  52.7953  52.8410  52.9428
    53.1374  53.2986  53.4673  53.7116  54.0994  54.1805  54.5547  54.6825
    54.8213  55.0662  55.1507  55.6335  55.6976  55.8839  55.9226  56.5866

          k = 0.1750 0.3031 0.0000 ( 14761 PWs)   bands (ev):

   -66.6506 -40.8900 -40.8293 -40.7137 -18.9648 -18.3265 -11.0534  -9.8638
    -9.7997  -9.2878  -7.9793  -7.0170  -6.7797  -4.0028  -3.3448  -3.1559
    -1.5448   1.3885   1.5124   2.9659   3.3838   3.5671   4.0173   4.4147
     5.6740   5.7388   5.7410   6.5324   6.6891   8.0496   8.8566   8.9447
     9.8112  11.0332  11.3811  11.5389  11.5426  11.8994  12.7274  12.7616
    13.5853  13.8821  13.9816  14.1174  15.1978  16.1359  16.2688  16.6216
    16.6423  17.3275  17.3462  17.8870  18.0508  18.9595  19.0738  19.2712
    19.8926  20.0390  20.6912  20.7853  21.7294  21.8328  22.0003  22.1518
    22.3903  22.5333  22.6700  23.2003  23.5131  23.6934  23.9545  24.2495
    24.7266  24.8376  25.6085  25.7223  25.9101  26.0217  26.1206  27.0192
    27.2462  27.3056  27.7641  27.8798  27.9426  28.5669  29.1297  29.2299
    29.3244  29.5958  29.9836  30.6430  30.9702  31.1174  31.6730  31.7063
    31.9611  32.1753  32.4486  32.6456  32.8199  33.2606  33.3868  33.4835
    33.7230  33.9622  34.3733  34.4715  34.7131  34.9087  35.3772  35.8166
    36.0689  36.2606  36.5929  36.8139  36.9637  37.4449  37.5140  37.7641
    38.1815  38.2648  38.4656  38.7029  38.9755  39.0732  39.3922  39.5722
    39.7034  40.0359  40.1277  40.9933  41.1613  41.5285  41.5931  41.6272
    41.9669  42.0990  42.3381  42.3822  42.8064  42.8716  43.3988  43.5037
    43.6204  43.8447  44.0264  44.4410  44.7259  44.9467  45.5849  45.7172
    45.7791  46.0633  46.0896  46.4190  46.4611  46.7755  46.8846  47.5783
    47.7355  47.8901  48.4174  48.5674  48.7972  49.0070  49.2225  49.2470
    49.5288  49.6071  49.7667  50.2338  50.2968  50.6617  51.1012  51.2141
    51.2760  51.8055  51.9275  52.1780  52.3330  52.7104  52.7286  52.9975
    53.1130  53.4596  53.4851  53.8319  53.8662  54.0250  54.4035  54.6333
    54.6946  55.0380  55.2204  55.6287  55.7010  55.7645  55.8658  56.4421

          k = 0.1833 0.3175 0.0000 ( 14763 PWs)   bands (ev):

   -66.6486 -40.9044 -40.8254 -40.7225 -18.8708 -18.2879 -11.0841 -10.0043
    -9.7716  -9.3303  -8.0532  -7.0648  -6.7760  -3.9885  -3.3187  -3.1061
    -1.4867   1.5196   1.6551   2.8479   3.3899   3.6601   4.1025   4.5391
     5.5184   5.7853   5.8063   6.5579   6.7031   8.2027   8.8205   9.0264
     9.8859  11.0008  11.1123  11.3032  11.3045  11.8575  12.8757  12.8873
    13.3135  13.7144  13.7243  13.9007  15.2793  16.1458  16.2249  16.4584
    16.5329  17.2364  17.2615  17.9923  18.0882  18.9969  19.0606  19.3860
    19.7116  19.9090  20.5544  20.7918  21.8170  21.8212  22.0906  22.1432
    22.4497  22.5129  22.5918  23.1857  23.4562  23.6788  23.9086  24.3854
    24.8747  24.8792  25.6262  25.7418  25.9287  25.9807  26.0145  26.9834
    27.0967  27.2571  27.7174  27.9428  28.0136  28.5222  29.1122  29.2040
    29.2414  29.7392  30.0430  30.5389  31.0440  31.0821  31.7199  32.0617
    32.1133  32.2453  32.5639  32.7805  33.0461  33.3482  33.7271  33.7794
    33.9007  34.0707  34.6163  34.8650  34.9290  35.1153  35.5262  36.0931
    36.3469  36.3977  36.4732  36.8278  37.1250  37.4547  37.8205  37.8675
    38.2822  38.3162  38.3740  38.9022  39.1688  39.2429  39.4437  39.6127
    39.7493  40.0411  40.0984  40.6456  40.9441  41.3960  41.4071  41.9602
    42.0108  42.0679  42.0986  42.5374  42.8627  42.8722  43.2040  43.3435
    43.5913  43.8101  43.9003  44.4759  44.6185  44.9444  45.2714  45.6671
    45.8581  46.0548  46.2918  46.5413  46.5415  46.8195  46.8529  47.8223
    47.8794  47.9520  48.1512  48.3503  48.8966  49.1501  49.2346  49.4061
    49.5083  49.8273  50.0908  50.1426  50.1677  50.8305  51.0778  51.1647
    51.5168  51.6388  51.7375  52.0221  52.0491  52.5552  52.6377  52.9147
    53.1533  53.4336  53.5389  53.8096  53.9471  54.1894  54.2314  54.5182
    54.7442  54.9110  55.4203  55.4829  55.5514  55.7750  55.8660  56.3706

          k = 0.1916 0.3319 0.0000 ( 14761 PWs)   bands (ev):

   -66.6466 -40.9178 -40.8216 -40.7317 -18.7775 -18.2494 -11.1182 -10.1471
    -9.7378  -9.3587  -8.1426  -7.1179  -6.7622  -3.9594  -3.2911  -3.0561
    -1.4354   1.6474   1.8000   2.7242   3.4041   3.7442   4.2018   4.6135
     5.3719   5.8826   5.9002   6.5811   6.7250   8.3544   8.6705   9.1764
     9.9214  10.8472  10.8500  11.1113  11.1439  11.8855  12.8836  12.9641
    13.1669  13.5099  13.5152  13.8251  15.2722  16.0392  16.1680  16.3759
    16.5087  17.1198  17.1337  18.0843  18.1742  19.0446  19.0701  19.2792
    19.5481  20.0180  20.2605  20.9105  21.7734  21.8580  22.0381  22.1877
    22.5008  22.5706  22.6270  23.2083  23.4480  23.5218  24.0565  24.5297
    24.9445  25.0473  25.5204  25.7312  25.8690  25.9623  25.9972  26.9198
    26.9672  27.2421  27.6624  28.0079  28.1544  28.4977  29.0868  29.1276
    29.2331  29.8807  30.0761  30.4179  30.9663  31.1471  31.6293  32.0299
    32.4237  32.4958  32.6978  32.7000  33.3224  33.4050  33.9700  34.1126
    34.2612  34.3117  34.9018  34.9728  34.9897  35.5291  35.8347  36.0707
    36.4039  36.6319  36.7458  36.9129  37.3496  37.5115  37.6689  37.9932
    38.2647  38.4029  38.7860  38.9543  39.1271  39.2960  39.4236  39.7632
    39.7860  39.9977  40.1224  40.4594  41.0281  41.0576  41.1976  41.7686
    41.8346  41.9690  42.5403  42.5734  42.9107  43.0015  43.0909  43.3233
    43.3757  43.7063  44.1980  44.3465  44.4163  44.7690  45.3500  45.4080
    45.9528  45.9944  46.4930  46.5883  46.6476  46.9819  47.0720  47.5896
    47.7475  48.0267  48.2188  48.5351  48.8244  49.2061  49.4112  49.5228
    49.6487  49.8673  49.9672  50.3432  50.4293  50.6116  50.9363  51.3530
    51.5626  51.6428  51.7043  51.8085  51.9848  52.3072  52.5922  53.0085
    53.0737  53.2796  53.6130  53.7761  53.9506  54.2615  54.3549  54.4278
    54.8114  54.9178  55.0538  55.2589  55.7498  55.7998  56.0045  56.1186

          k = 0.2000 0.3464 0.0000 ( 14747 PWs)   bands (ev):

   -66.6448 -40.9301 -40.8180 -40.7412 -18.6855 -18.2112 -11.1525 -10.2894
    -9.7023  -9.3752  -8.2437  -7.1759  -6.7406  -3.9170  -3.2629  -3.0072
    -1.3902   1.7655   1.9463   2.6049   3.4314   3.8017   4.3117   4.6352
     5.3024   5.9690   6.0368   6.6026   6.7542   8.4507   8.5542   9.3007
     9.8876  10.5940  10.6260  10.9323  11.0867  11.9497  12.6730  12.9558
    13.1094  13.3021  13.4595  13.9042  15.1676  15.9003  16.1173  16.3414
    16.4802  16.9588  17.0675  18.1633  18.2495  18.9665  19.1261  19.1649
    19.4071  19.9629  20.2725  21.0251  21.6530  21.7683  22.0156  22.3031
    22.6049  22.6184  22.6564  23.2834  23.4319  23.4887  24.2174  24.6695
    25.0308  25.1918  25.3627  25.6965  25.7479  26.0127  26.0173  26.7879
    26.8618  27.2831  27.5944  28.1048  28.2970  28.5121  29.0248  29.0908
    29.2454  29.9725  30.0820  30.3807  30.9045  31.1157  31.4907  32.1105
    32.2280  32.7110  32.8469  32.9127  33.4126  33.5785  34.2618  34.4361
    34.4686  34.5745  34.9327  35.2548  35.2618  35.7319  36.0940  36.1111
    36.6182  36.6406  36.9374  37.3325  37.5293  37.5496  37.6069  38.1757
    38.1772  38.5604  38.7030  38.8993  39.2252  39.2669  39.5021  39.5578
    39.8015  40.1402  40.1910  40.6244  40.8428  40.9429  41.3137  41.5585
    41.7088  41.8639  42.3660  42.5420  42.8490  43.0480  43.2625  43.5589
    43.5715  43.8116  43.8820  44.1890  44.3859  44.7131  45.0559  45.6948
    45.8007  46.1294  46.4178  46.7440  46.8020  46.8943  47.1975  47.6197
    47.6930  48.1231  48.4323  48.7151  48.8585  49.2445  49.4986  49.5484
    49.6562  49.7816  50.0535  50.2712  50.5704  50.7337  50.8090  51.2449
    51.3856  51.6761  51.7031  52.0798  52.1759  52.1835  52.6192  52.7125
    53.1932  53.2762  53.6580  53.7664  53.8717  54.0151  54.3296  54.4154
    54.7403  54.9089  55.0447  55.2828  55.6062  55.8226  55.9682  56.1711

          k = 0.2083 0.3608 0.0000 ( 14743 PWs)   bands (ev):

   -66.6430 -40.9411 -40.8145 -40.7511 -18.5954 -18.1736 -11.1840 -10.4291
    -9.6682  -9.3812  -8.3533  -7.2385  -6.7127  -3.8646  -3.2344  -2.9609
    -1.3497   1.8614   2.0930   2.5033   3.4747   3.8120   4.4304   4.6393
     5.3052   6.0621   6.1844   6.6248   6.7944   8.2948   8.6710   9.3756
     9.8035  10.3553  10.3952  10.7414  11.1090  12.0032  12.4344  12.8811
    12.9471  13.1115  13.5883  14.0831  14.9981  15.7710  16.0670  16.3008
    16.4114  16.7992  17.0662  18.2288  18.3043  18.6874  19.1683  19.2075
    19.3293  19.7473  20.5460  21.0769  21.4988  21.6912  21.9884  22.4325
    22.5642  22.6769  22.7908  23.4001  23.4603  23.5630  24.3483  24.7982
    25.1068  25.1084  25.3616  25.6644  25.7201  25.9989  26.0769  26.6439
    26.7763  27.3448  27.5199  28.1891  28.4335  28.5511  28.9379  29.0967
    29.2877  29.9796  30.0684  30.4832  30.8612  30.9595  31.4350  31.9200
    32.2275  32.8349  32.9894  33.1122  33.6279  33.6310  34.2910  34.6280
    34.6587  34.8469  35.0794  35.5221  35.7469  35.7849  36.1333  36.1622
    36.7387  36.8844  37.1270  37.3341  37.5874  37.9101  37.9722  38.0187
    38.2584  38.5092  38.7745  38.7809  38.9097  39.3093  39.5800  39.6464
    39.6765  40.1795  40.5388  40.5665  40.7379  41.2176  41.3181  41.4366
    41.6830  41.8865  42.1708  42.3760  42.8865  43.0712  43.0978  43.5335
    43.7428  44.0454  44.0579  44.0785  44.3286  44.5476  45.1516  45.7154
    45.7487  46.0606  46.3432  46.7144  46.8856  47.0247  47.3288  47.7273
    47.9726  48.2352  48.3063  48.9292  49.0778  49.2057  49.5317  49.5595
    49.6462  49.6490  50.0366  50.1714  50.3951  50.8266  51.0864  51.1399
    51.2655  51.7309  51.8887  52.1469  52.3010  52.3967  52.4335  52.7627
    53.1263  53.3946  53.4280  53.6360  53.8538  54.0242  54.2353  54.2773
    54.6000  54.8161  55.3221  55.3491  55.4217  55.7676  55.8424  56.0223

          k = 0.2166 0.3752 0.0000 ( 14727 PWs)   bands (ev):

   -66.6413 -40.9507 -40.8111 -40.7612 -18.5082 -18.1370 -11.2104 -10.5644
    -9.6380  -9.3777  -8.4688  -7.3050  -6.6788  -3.8073  -3.2038  -2.9190
    -1.3126   1.9120   2.2393   2.4411   3.5357   3.7673   4.5571   4.6742
     5.3498   6.1547   6.3299   6.6532   6.8536   8.1050   8.8015   9.3434
     9.7294  10.1679  10.1771  10.5396  11.1498  12.0087  12.2102  12.7724
    12.7933  12.9648  13.7578  14.3089  14.8008  15.6637  15.9922  16.2407
    16.3113  16.6441  17.1233  18.2244  18.3468  18.4580  19.0957  19.1580
    19.4366  19.6816  20.7820  21.0038  21.3821  21.7198  21.9327  22.3824
    22.6077  22.7658  22.9752  23.5209  23.5763  23.6689  24.4191  24.9101
    24.9144  25.1279  25.3911  25.6884  25.8426  25.9316  26.1440  26.5198
    26.7012  27.4131  27.4580  28.2651  28.4608  28.5499  28.9658  29.1355
    29.3663  29.9559  30.0441  30.6377  30.7606  30.8362  31.4356  31.6460
    32.3371  32.8776  33.1104  33.2847  33.6268  33.8830  34.1352  34.7073
    34.7729  35.0450  35.4275  35.4481  36.0861  36.0865  36.2318  36.2855
    36.7155  36.7921  37.3993  37.4468  37.6165  37.9661  38.0445  38.3148
    38.3169  38.5314  38.7953  38.9261  39.0269  39.1531  39.3728  39.6480
    39.7643  39.9948  40.6198  40.9246  41.0538  41.0874  41.1081  41.7518
    41.7668  41.9398  42.0179  42.3982  42.7830  42.9535  43.0758  43.2951
    43.6703  43.9776  44.2084  44.2558  44.5028  44.7577  45.2111  45.5336
    45.8666  45.9537  46.3275  46.5234  47.0319  47.4199  47.6096  47.7737
    47.9684  48.2710  48.3018  48.9999  49.0800  49.0903  49.5822  49.6018
    49.7835  49.8757  49.9032  50.0714  50.1324  50.8843  51.1052  51.2241
    51.4366  51.7437  51.9593  52.1881  52.3336  52.3875  52.5343  52.8600
    53.0386  53.0977  53.4722  53.6770  53.7657  53.9945  54.1132  54.4502
    54.5184  54.8930  55.0873  55.2377  55.3973  55.4530  55.6355  55.8632

          k = 0.2250 0.3897 0.0000 ( 14720 PWs)   bands (ev):

   -66.6397 -40.9589 -40.8080 -40.7715 -18.4244 -18.1015 -11.2299 -10.6940
    -9.6134  -9.3656  -8.5883  -7.3749  -6.6390  -3.7527  -3.1675  -2.8826
    -1.2772   1.8960   2.3840   2.4345   3.6153   3.6893   4.6912   4.7528
     5.4131   6.2344   6.4581   6.6974   6.9428   7.9129   8.9061   9.2011
     9.6220   9.9865  10.1088  10.3325  11.1516  11.9494  12.0056  12.6388
    12.6940  12.8766  13.9324  14.5437  14.5999  15.5845  15.8755  16.1836
    16.1943  16.5061  17.1810  18.0317  18.3762  18.4610  18.9599  19.1118
    19.5876  19.7398  20.8463  20.8530  21.4374  21.7104  21.9818  22.2076
    22.7315  22.8669  23.1711  23.6137  23.7277  23.8155  24.4345  24.7051
    25.0006  25.0940  25.3937  25.7975  25.8507  26.0649  26.2001  26.4060
    26.6276  27.4344  27.4860  28.1811  28.3968  28.6212  29.1156  29.2015
    29.4795  29.9188  30.0062  30.6038  30.7362  30.8179  31.4554  31.5060
    32.4054  32.8845  33.1804  33.4556  33.6073  34.0068  34.1035  34.6980
    34.7605  35.0589  35.4094  35.6641  36.0426  36.0455  36.4705  36.5096
    36.8865  36.9853  37.2032  37.3198  37.8681  37.9816  38.0770  38.5069
    38.6340  38.6609  38.7795  38.8544  39.2212  39.3672  39.4083  39.6128
    39.8541  40.0491  40.4899  40.7874  40.9613  41.2908  41.5598  41.7889
    41.7942  42.1591  42.1951  42.2844  42.5276  42.9790  43.1187  43.2546
    43.4687  43.9661  44.1894  44.4090  44.5791  44.9310  45.4561  45.4626
    45.9313  46.0170  46.4200  46.4668  47.1754  47.5489  47.7367  47.7823
    47.9297  48.2513  48.5317  48.9536  48.9555  49.0630  49.5412  49.5470
    49.8410  49.8824  49.9557  50.2014  50.3470  50.7725  51.1067  51.2987
    51.5596  51.6925  51.8446  52.1676  52.3084  52.3894  52.4881  52.9310
    52.9663  53.3546  53.3701  53.5999  53.6851  53.9840  54.0826  54.5819
    54.7253  54.7663  54.9043  55.0165  55.0486  55.1841  55.6503  55.8225

          k = 0.2333 0.4041 0.0000 ( 14712 PWs)   bands (ev):

   -66.6382 -40.9656 -40.8051 -40.7822 -18.3447 -18.0675 -11.2409 -10.8171
    -9.5960  -9.3456  -8.7100  -7.4476  -6.5929  -3.7101  -3.1199  -2.8531
    -1.2419   1.8267   2.4612   2.5263   3.6140   3.7139   4.8319   4.8632
     5.4851   6.2876   6.5586   6.7668   7.0691   7.7262   8.9606   9.0142
     9.4358   9.8410  10.1271  10.1735  11.0889  11.8149  11.8375  12.4869
    12.6635  12.8305  14.0912  14.4168  14.7501  15.5429  15.7242  16.0547
    16.1352  16.4250  17.1440  17.9016  18.3859  18.5308  18.8396  19.1126
    19.7308  19.8367  20.6606  20.7652  21.6203  21.6665  22.0264  22.1494
    22.8223  22.9502  23.3664  23.6926  23.8742  23.9844  24.4513  24.5115
    24.9462  25.1496  25.3072  25.8957  25.9596  26.2412  26.2645  26.3224
    26.5557  27.4668  27.5599  27.8728  28.5335  28.6186  29.2849  29.2971
    29.6216  29.8569  29.9289  30.5572  30.6867  30.8191  31.4808  31.5789
    32.4031  32.8923  33.1672  33.6066  33.6194  33.9542  34.2543  34.4221
    34.8034  34.9972  35.4274  35.5725  35.8115  35.8631  36.5299  36.6184
    36.9410  37.3000  37.4697  37.5104  37.7518  37.7874  38.2561  38.4655
    38.6280  38.6914  39.0004  39.1905  39.4236  39.5426  39.6039  40.0034
    40.0188  40.1097  40.3350  40.5977  41.0868  41.2169  41.5448  41.7852
    42.0697  42.1396  42.3419  42.5594  42.5669  42.8307  43.1460  43.3054
    43.5484  43.9628  44.2345  44.2768  44.5523  45.1546  45.5962  45.7371
    45.9303  46.0142  46.6684  46.6808  47.1267  47.3356  47.5518  47.8521
    48.2209  48.3763  48.7342  48.8894  48.9162  49.1578  49.3835  49.5220
    49.7059  49.8422  49.8775  50.4130  50.7444  50.8549  51.1414  51.1649
    51.4956  51.5332  51.7346  52.0457  52.3343  52.4422  52.5176  52.8934
    53.0246  53.1632  53.3655  53.7020  53.7427  54.0218  54.0353  54.4218
    54.5113  54.6546  54.7620  55.0543  55.0867  55.1245  55.5903  55.7610

          k = 0.2416 0.4185 0.0000 ( 14728 PWs)   bands (ev):

   -66.6368 -40.9708 -40.8024 -40.7930 -18.2699 -18.0351 -11.2422 -10.9325
    -9.5866  -9.3184  -8.8323  -7.5223  -6.5405  -3.6881  -3.0561  -2.8313
    -1.2053   1.7335   2.4798   2.6653   3.5731   3.8312   4.9776   4.9927
     5.5623   6.3092   6.6330   6.8602   7.2275   7.5535   8.8184   8.9407
     9.2212   9.7453   9.9410  10.2784  10.9769  11.6310  11.6997  12.3262
    12.6841  12.7959  14.1389  14.3401  14.8828  15.5564  15.5610  15.8854
    16.0797  16.4417  16.9931  17.9144  18.3794  18.5943  18.7892  19.1543
    19.8515  19.9155  20.4701  20.6666  21.5405  21.8489  21.9450  22.3406
    22.8605  22.9885  23.5326  23.7860  23.9850  24.1442  24.3536  24.5370
    24.8598  25.1485  25.2198  26.0270  26.1041  26.1451  26.3074  26.5069
    26.5624  27.5420  27.5533  27.6309  28.5334  28.7132  29.4114  29.4195
    29.7861  29.7868  29.8092  30.5689  30.6378  30.8443  31.5000  31.7804
    32.3240  32.9188  33.0980  33.6103  33.7544  33.9604  33.9649  34.4217
    34.7751  34.8649  35.3788  35.4162  35.5529  35.6297  36.4720  36.5108
    37.1083  37.1364  37.6221  37.6603  37.8993  38.0282  38.1881  38.5015
    38.6741  39.0145  39.2778  39.2901  39.5807  39.6383  39.7890  40.1718
    40.1899  40.5126  40.5660  40.6104  40.9261  41.2707  41.4044  41.7150
    41.8619  42.3322  42.3877  42.7732  42.9371  43.0211  43.0515  43.4201
    43.8320  43.9440  44.0110  44.2224  44.8655  45.5004  45.5993  45.6589
    45.9498  46.1532  46.8360  46.8874  46.9423  47.3843  47.5404  47.9338
    48.3811  48.5262  48.7068  48.9303  49.0521  49.1690  49.2712  49.5365
    49.5601  49.8001  49.9400  50.2719  50.7184  50.7617  51.2981  51.3199
    51.4039  51.5410  51.9011  51.9302  52.1922  52.3593  52.6296  52.6676
    52.9084  53.0492  53.2916  53.7038  53.7184  53.9433  54.2230  54.2565
    54.3562  54.3977  54.7817  55.0794  55.1129  55.2833  55.4116  55.5758

          k = 0.2500 0.4330 0.0000 ( 14728 PWs)   bands (ev):

   -66.6356 -40.9744 -40.8039 -40.8000 -18.2006 -18.0048 -11.2330 -11.0397
    -9.5861  -9.2849  -8.9536  -7.5983  -6.4822  -3.6907  -2.9747  -2.8177
    -1.1668   1.6346   2.4641   2.8005   3.5855   3.9662   5.1257   5.1325
     5.6441   6.3048   6.6888   6.9555   7.4064   7.4123   8.6283   8.8493
     9.0030   9.6276   9.8395  10.3692  10.8558  11.4574  11.5581  12.1618
    12.7205  12.7564  14.0172  14.4039  14.9147  15.4154  15.6148  15.7189
    15.9976  16.5604  16.8395  17.9742  18.3714  18.6473  18.8311  19.2112
    19.9271  19.9427  20.2874  20.6334  21.5011  21.7020  22.2013  22.5269
    22.8489  22.9703  23.5929  23.9070  24.0939  24.2470  24.2618  24.6991
    24.8375  24.9969  25.2506  25.9699  26.1204  26.2062  26.4887  26.5218
    26.8020  27.2426  27.6755  27.6988  28.3862  28.9217  29.3866  29.5542
    29.6726  29.8182  29.9768  30.4596  30.8024  30.8894  31.4956  32.0199
    32.1995  32.9601  33.0198  33.4577  33.5558  33.8860  33.9528  34.4581
    34.5937  34.6855  35.1959  35.2918  35.5292  35.5429  36.2883  36.3670
    36.7716  37.0315  37.4082  37.8033  38.1895  38.2429  38.5307  38.6624
    38.9854  39.1211  39.1993  39.4113  39.7263  39.8321  39.9332  40.2230
    40.2870  40.8107  40.8719  40.9919  41.0821  41.1804  41.2416  41.7583
    41.8184  42.2264  42.6180  42.8019  42.9674  43.0662  43.4844  43.6394
    43.8860  44.0950  44.1948  44.2295  45.3286  45.3908  45.6008  45.7694
    45.9943  46.0137  46.7392  46.9710  47.0871  47.5636  47.8921  48.1063
    48.2679  48.6017  48.7384  48.8995  49.0106  49.2149  49.3481  49.4620
    49.4753  49.7642  49.9393  50.1227  50.5742  50.6528  51.2482  51.2646
    51.5225  51.7522  51.9080  52.0310  52.0962  52.2169  52.4625  52.7769
    52.8032  52.8756  52.9733  53.5141  53.7142  53.7791  54.1620  54.1931
    54.4059  54.5673  54.7176  54.8412  55.0281  55.1973  55.3482  55.3668

          k = 0.2583 0.4474 0.0000 ( 14732 PWs)   bands (ev):

   -66.6344 -40.9765 -40.8150 -40.7977 -18.1373 -17.9767 -11.2124 -11.1379
    -9.5958  -9.2459  -9.0714  -7.6747  -6.4186  -3.7164  -2.8794  -2.8120
    -1.1258   1.5393   2.4108   2.9312   3.6514   4.1176   5.2713   5.2767
     5.7307   6.2838   6.7316   6.9994   7.3477   7.5956   8.4517   8.7175
     8.7894   9.4487   9.8267  10.3839  10.7772  11.3142  11.4263  11.9975
    12.7121  12.7431  13.8901  14.3985  14.8688  15.3241  15.4851  15.7810
    15.8903  16.7576  16.7577  18.0182  18.3776  18.7411  18.9175  19.2506
    19.8577  19.9905  20.1420  20.6785  21.5113  21.5852  22.3962  22.6880
    22.8344  22.9097  23.5075  24.0431  24.1751  24.2568  24.2821  24.8470
    24.9269  24.9768  25.2405  25.8101  26.0666  26.3044  26.5956  26.7453
    26.8811  27.1710  27.7773  27.8058  28.2140  29.1025  29.2747  29.5510
    29.6820  29.9562  30.1814  30.3556  30.9620  31.0069  31.4458  32.0756
    32.2565  32.8680  32.9543  33.0901  33.3877  33.7917  33.8633  34.3775
    34.4947  34.5260  35.0503  35.3016  35.5235  35.5741  36.0744  36.1108
    36.4651  36.9187  37.2208  37.9488  38.0819  38.2662  38.8111  38.9357
    39.0750  39.2026  39.5605  39.5678  39.8786  40.0124  40.0397  40.1779
    40.4193  40.7116  40.8885  41.2405  41.3196  41.5441  41.5574  41.8377
    41.8612  42.2357  42.6980  42.8997  42.9775  43.2392  43.5916  43.8583
    43.9415  44.3889  44.3948  44.6294  45.3011  45.5089  45.6918  45.7601
    45.9235  46.0213  46.9607  47.0116  47.2627  47.6502  47.9487  48.2745
    48.3163  48.6173  48.7735  48.8531  48.9658  49.2147  49.2539  49.3856
    49.5006  49.8061  49.9668  50.0219  50.5510  50.6180  51.0712  51.1164
    51.5095  51.6132  51.7735  51.9339  52.2254  52.3486  52.3967  52.5198
    52.5305  53.0293  53.1311  53.1825  53.5547  53.6783  54.1030  54.1487
    54.2128  54.3967  54.6588  54.6806  54.9318  54.9849  55.0785  55.2406

          k = 0.2666 0.4618 0.0000 ( 14716 PWs)   bands (ev):

   -66.6334 -40.9770 -40.8261 -40.7958 -18.0804 -17.9510 -11.2265 -11.1802
    -9.6179  -9.2024  -9.1821  -7.7506  -6.3512  -3.7610  -2.8136  -2.7762
    -1.0827   1.4525   2.3304   3.0569   3.7579   4.2831   5.4066   5.4208
     5.8220   6.2547   6.7641   6.9548   7.3888   7.7862   8.2962   8.5761
     8.5845   9.2586   9.8226  10.2949  10.7307  11.2472  11.3094  11.8364
    12.6742  12.7371  13.7858  14.2718  14.7784  15.2814  15.2984  15.8036
    15.9296  16.7539  16.9961  18.0490  18.4094  18.8825  19.0105  19.2455
    19.7461  19.9005  20.1548  20.7541  21.5196  21.5640  22.4415  22.7358
    22.8991  22.8992  23.3659  24.0462  24.1212  24.2678  24.4895  24.8996
    25.0552  25.1672  25.2466  25.6642  26.0040  26.2336  26.7107  26.8735
    27.0227  27.3491  27.8718  27.8905  28.1035  28.9818  29.4349  29.4565
    29.7775  30.1205  30.2560  30.3956  31.0530  31.2174  31.3448  31.9691
    32.2972  32.5715  32.9165  33.0753  33.0785  33.5738  33.6433  34.1645
    34.5085  34.5338  34.9477  35.2478  35.5811  35.6289  35.8824  35.8828
    36.2544  36.9155  37.0728  37.8488  37.9276  38.1273  38.5644  39.1975
    39.3997  39.5106  39.5150  39.8830  40.0159  40.0352  40.1840  40.4311
    40.4565  40.7143  40.8692  41.3304  41.4660  41.7525  41.8625  42.1385
    42.1440  42.5037  42.6117  43.1288  43.2016  43.5185  43.5613  43.8481
    44.1162  44.5378  44.7012  44.9937  45.4059  45.5056  45.5467  45.8371
    46.1247  46.3843  46.9276  47.3046  47.4786  47.5726  47.6513  48.0888
    48.4822  48.5751  48.7508  48.8655  49.0787  49.1671  49.1990  49.6225
    49.6269  49.7375  49.9693  50.0514  50.4998  50.5626  50.7847  50.9017
    51.2895  51.6544  51.7340  51.7394  51.8596  52.1063  52.3826  52.5938
    52.6488  52.8619  53.1874  53.2624  53.5595  53.5619  53.8381  53.8974
    53.9562  54.1736  54.4117  54.5602  54.7680  54.7743  55.1324  55.2125

          k = 0.2750 0.4763 0.0000 ( 14704 PWs)   bands (ev):

   -66.6326 -40.9761 -40.8373 -40.7941 -18.0304 -17.9281 -11.3053 -11.1361
    -9.6560  -9.2804  -9.1557  -7.8248  -6.2816  -3.8191  -2.8214  -2.6711
    -1.0384   1.3781   2.2351   3.1766   3.8898   4.4601   5.5194   5.5611
     5.9153   6.2257   6.7896   6.8874   7.4601   7.9515   8.1844   8.3927
     8.4481   9.0735   9.8002  10.1576  10.6332  11.2035  11.2870  11.6815
    12.6596  12.7033  13.7021  14.0611  14.6621  15.1168  15.2165  15.7938
    16.1013  16.8102  17.2382  18.0882  18.4715  19.0305  19.1029  19.1926
    19.6366  19.7606  20.2573  20.8096  21.5247  21.6388  22.3771  22.6239
    22.9342  22.9938  23.2981  23.8591  24.0774  24.3680  24.6862  25.0090
    25.0718  25.2701  25.4053  25.6542  25.9585  26.0583  26.8152  26.9699
    27.3133  27.5211  27.7914  28.0528  28.1608  28.7924  29.4039  29.6372
    29.8085  30.1793  30.2865  30.6062  31.1193  31.2055  31.4135  31.8520
    31.8819  32.7310  32.7372  32.9248  32.9900  33.3540  33.3862  33.9452
    34.4005  34.5128  34.8827  35.1924  35.6524  35.7241  35.7536  35.7994
    36.1708  36.9021  36.9215  37.6277  37.7181  38.1117  38.3404  39.0598
    39.4871  39.4982  39.8083  39.8460  40.0909  40.2761  40.3127  40.4342
    40.7843  40.9382  41.1401  41.2792  41.5355  41.9243  41.9460  42.3946
    42.5214  42.8458  42.9772  43.1218  43.4845  43.6868  43.7587  44.0574
    44.3141  44.4078  44.9249  45.3066  45.3944  45.4559  45.9994  46.0604
    46.3515  46.7742  46.8314  47.1581  47.4160  47.6483  47.7221  47.7745
    48.3064  48.6570  48.7999  48.8517  49.0715  49.1335  49.4048  49.6243
    49.6935  49.8180  49.9733  50.1614  50.3464  50.4278  50.6471  50.8133
    51.2410  51.2954  51.4204  51.5705  51.7680  51.8442  52.5181  52.5194
    52.6429  52.8116  53.1480  53.1881  53.2246  53.4105  53.5015  53.6364
    54.0324  54.0553  54.3302  54.4807  54.6840  54.7773  55.0589  55.1011

          k = 0.2833 0.4907 0.0000 ( 14688 PWs)   bands (ev):

   -66.6318 -40.9737 -40.8483 -40.7926 -17.9875 -17.9080 -11.3737 -11.0807
    -9.7141  -9.3604  -9.1072  -7.8959  -6.2123  -3.8851  -2.8338  -2.5696
    -0.9942   1.3193   2.1335   3.2888   4.0346   4.6451   5.5959   5.6942
     6.0044   6.2012   6.8152   6.8519   7.4964   7.9572   8.1863   8.2775
     8.3522   8.9005   9.7612  10.0107  10.4898  11.0988  11.3876  11.5348
    12.6537  12.6847  13.6249  13.8249  14.5293  14.9445  15.1084  15.8466
    16.2916  16.9122  17.4530  18.1465  18.5506  19.0847  19.1221  19.2424
    19.5720  19.6348  20.3893  20.8291  21.5976  21.7086  22.2997  22.4799
    22.7959  23.0827  23.3537  23.6767  24.0171  24.4326  24.7925  25.0747
    25.0821  25.3050  25.6377  25.8490  25.9232  25.9464  26.8546  27.0788
    27.5987  27.6789  27.7478  28.2235  28.2502  28.6414  29.4098  29.7348
    29.7406  30.2156  30.3480  30.7623  31.0658  31.0786  31.5741  31.6700
    31.7057  32.4962  32.6444  32.9165  32.9684  33.1954  33.1969  33.7089
    34.1497  34.3679  34.9545  35.2783  35.5316  35.7750  35.7834  35.8648
    36.1856  36.6911  36.8130  37.4953  37.6278  38.1388  38.1649  38.8034
    39.2403  39.4208  39.5758  40.1355  40.2086  40.3916  40.4880  40.5491
    40.9628  41.0047  41.5422  41.5514  41.5774  41.9348  42.2067  42.5914
    42.8371  42.8442  43.3050  43.5257  43.7704  43.8488  44.1147  44.1869
    44.5005  44.6129  45.1029  45.4106  45.4766  45.7243  46.1354  46.2929
    46.6630  46.7248  46.8245  47.1284  47.2991  47.6950  47.7829  47.8020
    48.2607  48.4810  48.8178  48.8183  49.1430  49.1927  49.3324  49.4869
    49.6920  49.7951  49.8839  50.2746  50.3249  50.3372  50.6606  50.8059
    50.9289  51.0918  51.3258  51.3657  51.6889  51.8038  52.3216  52.4354
    52.5222  52.5555  52.8167  52.8842  53.1986  53.3124  53.3796  53.5375
    54.0159  54.0438  54.2707  54.4475  54.6126  54.7592  54.8905  54.9166

          k = 0.2916 0.5051 0.0000 ( 14712 PWs)   bands (ev):

   -66.6312 -40.9701 -40.8592 -40.7914 -17.9517 -17.8909 -11.4316 -11.0147
    -9.7922  -9.4198  -9.0588  -7.9624  -6.1460  -3.9536  -2.8492  -2.4766
    -0.9518   1.2788   2.0302   3.3914   4.1824   4.8330   5.6312   5.8157
     6.0816   6.1767   6.8525   6.8749   7.4674   7.8560   8.0426   8.2909
     8.4420   8.7481   9.7219   9.8673  10.3315  10.9873  11.3967  11.4994
    12.6050  12.7581  13.5003  13.6452  14.3865  14.7820  14.9857  15.9120
    16.4977  17.0502  17.6210  18.2182  18.5876  19.0538  19.0961  19.3766
    19.5464  19.5881  20.5341  20.8322  21.7038  21.7417  22.2577  22.3360
    22.5899  23.1666  23.2794  23.6366  23.9598  24.4184  24.7010  25.1139
    25.1289  25.5140  25.8308  25.8841  25.9814  26.1279  26.8102  27.1769
    27.7536  27.8270  27.9114  28.2887  28.3366  28.6259  29.4813  29.5543
    29.7267  30.0653  30.4173  30.6619  31.0770  31.1083  31.5316  31.6907
    31.7701  32.2437  32.3530  32.9088  32.9892  33.0565  33.1061  33.4810
    33.9595  34.2477  35.0807  35.3080  35.4214  35.7436  35.8287  36.0157
    36.0832  36.5884  36.6693  37.4757  37.6940  38.0607  38.1773  38.5240
    38.9746  39.0983  39.5311  40.0071  40.3474  40.4304  40.6041  40.7251
    40.9862  41.0694  41.6487  41.8350  41.9063  42.0579  42.4005  42.6906
    43.0603  43.2725  43.5914  43.6742  43.8411  44.2131  44.3996  44.6830
    44.7337  44.9557  45.3146  45.4862  45.7320  45.7778  46.0267  46.2766
    46.5573  46.8081  47.0238  47.1116  47.6222  47.7195  47.8634  47.9412
    48.1547  48.3973  48.6314  48.7588  49.0235  49.2420  49.2449  49.3411
    49.5704  49.7683  49.9919  50.1300  50.2600  50.3101  50.6001  50.6105
    50.8563  50.8778  51.3699  51.3961  51.6778  51.8188  51.9242  52.0921
    52.2661  52.4996  52.6640  52.6903  53.1188  53.1859  53.3006  53.4756
    53.9822  54.0156  54.2258  54.3459  54.4010  54.5746  54.7458  54.7574

          k = 0.3000 0.5196 0.0000 ( 14708 PWs)   bands (ev):

   -66.6307 -40.9654 -40.8697 -40.7904 -17.9231 -17.8770 -11.4787 -10.9399
    -9.8842  -9.4621  -9.0129  -8.0221  -6.0857  -4.0193  -2.8657  -2.3962
    -0.9130   1.2589   1.9281   3.4813   4.3241   5.0162   5.6383   5.9134
     6.1440   6.1486   6.9121   6.9624   7.3781   7.7437   7.9051   8.2321
     8.6294   8.6341   9.7049   9.7321  10.1724  10.8692  11.2675  11.5942
    12.5728  12.8787  13.3023  13.5682  14.2392  14.6291  14.8675  15.9645
    16.7161  17.2146  17.7365  18.2799  18.5248  18.9975  19.1232  19.4597
    19.5510  19.6690  20.6776  20.8488  21.7067  21.8022  22.2183  22.2759
    22.3687  23.0783  23.2640  23.6877  23.9014  24.3445  24.5063  25.1934
    25.2065  25.7402  25.8539  26.0642  26.1295  26.3856  26.7415  27.2744
    27.8210  27.9037  28.1493  28.2971  28.4695  28.7190  29.2459  29.5413
    29.6151  29.8156  30.4063  30.6079  31.0894  31.2206  31.4844  31.6536
    31.9287  32.0248  32.2194  32.6929  32.8087  32.9782  33.2141  33.3337
    33.9049  34.1985  35.0648  35.2175  35.4761  35.5782  35.8288  35.9100
    36.1804  36.6343  36.6685  37.5548  37.7729  38.0394  38.2152  38.2681
    38.7353  38.8006  39.4934  39.8178  40.1720  40.5021  40.5577  40.7341
    41.1061  41.2297  41.6797  41.8854  41.9950  42.5093  42.6111  43.1479
    43.2180  43.5252  43.7585  43.9171  44.1755  44.3439  44.6273  45.0663
    45.2196  45.2373  45.4263  45.5011  45.7211  45.7522  46.2789  46.5237
    46.5283  46.7627  47.0727  47.1679  47.4873  47.7676  48.0532  48.0722
    48.2892  48.3275  48.4906  48.7880  48.8858  48.8885  49.1408  49.2978
    49.5885  49.6407  49.9754  49.9845  50.0886  50.3180  50.5050  50.6089
    50.7993  50.8141  51.1896  51.3975  51.5554  51.6399  51.7351  51.7863
    52.2386  52.2712  52.8177  52.8283  52.9924  53.1760  53.2765  53.3143
    53.5876  53.7299  54.0244  54.2102  54.3868  54.4619  54.5755  54.7625

          k = 0.3083 0.5340 0.0000 ( 14708 PWs)   bands (ev):

   -66.6303 -40.9599 -40.8796 -40.7897 -17.9014 -17.8662 -11.5151 -10.8599
    -9.9805  -9.4925  -8.9723  -8.0727  -6.0349  -4.0769  -2.8815  -2.3314
    -0.8797   1.2608   1.8294   3.5549   4.4502   5.1807   5.6416   5.9676
     6.1045   6.2242   6.9936   7.0990   7.2549   7.6364   7.7835   8.1395
     8.5480   8.8245   9.6089   9.7269  10.0189  10.7515  11.1485  11.6570
    12.5660  13.0372  13.1212  13.5217  14.0928  14.4861  14.7630  15.9985
    16.9419  17.3951  17.7996  18.2928  18.4038  18.9739  19.1109  19.5099
    19.6939  19.7433  20.8066  20.9084  21.5950  21.8668  22.1401  22.1436
    22.3632  22.8722  23.3856  23.7140  23.8411  24.2395  24.3083  25.2637
    25.2860  25.8128  26.0831  26.2037  26.3214  26.6203  26.7433  27.3708
    27.8368  27.8651  28.3439  28.3878  28.6738  28.7892  28.8632  29.0804
    29.7861  29.8968  30.1533  30.7349  30.9820  31.0772  31.4222  31.6975
    31.9499  32.0600  32.2433  32.5575  32.6058  32.8860  33.2467  33.3366
    33.9113  34.1500  34.8049  35.2761  35.3049  35.4666  35.8382  35.9013
    36.3530  36.6995  36.7713  37.6472  37.6913  38.0879  38.1608  38.2609
    38.5705  38.6255  39.4551  39.6116  39.9634  40.2158  40.4537  40.6749
    41.2910  41.5167  41.6428  41.9400  42.1777  42.7847  42.9426  43.3609
    43.4398  43.6839  44.0095  44.2383  44.3322  44.5150  44.7335  45.1128
    45.2691  45.3307  45.6611  45.7534  46.1399  46.2544  46.3454  46.4495
    46.7627  46.7665  47.0940  47.2665  47.3836  47.5930  47.7128  48.1955
    48.3273  48.4385  48.5017  48.5914  48.7816  48.8745  49.1070  49.2118
    49.6474  49.6620  49.7366  49.8367  50.1003  50.1424  50.3917  50.4011
    50.6285  51.0374  51.2138  51.2189  51.2509  51.5358  51.6415  51.8549
    52.1123  52.1165  52.6344  52.9965  53.0970  53.1221  53.2183  53.2472
    53.4112  53.4947  53.9214  53.9248  54.2332  54.3348  54.4674  54.6104

          k = 0.3166 0.5484 0.0000 ( 14720 PWs)   bands (ev):

   -66.6301 -40.9542 -40.8883 -40.7892 -17.8865 -17.8586 -11.5408 -10.7814
   -10.0705  -9.5144  -8.9401  -8.1113  -5.9965  -4.1218  -2.8948  -2.2845
    -0.8539   1.2832   1.7375   3.6091   4.5502   5.3040   5.6639   5.9795
     6.0685   6.3118   7.0844   7.1240   7.2626   7.5515   7.6697   8.0184
     8.4864   9.0023   9.5060   9.7857   9.8746  10.6476  11.0440  11.6865
    12.5799  12.9858  13.2184  13.4914  13.9546  14.3554  14.6791  16.0164
    17.1676  17.5812  17.8061  18.2330  18.2788  19.0052  19.0714  19.5485
    19.7641  19.9000  20.9073  21.0311  21.4415  21.8109  22.0259  22.1041
    22.4491  22.7083  23.5254  23.7125  23.7877  24.1186  24.1374  25.2808
    25.3735  25.8682  26.3570  26.3659  26.4304  26.8114  26.8912  27.4264
    27.8055  27.8092  28.2595  28.3932  28.6629  28.6929  28.9107  28.9585
    29.9005  29.9911  30.0002  30.5573  30.8250  31.0660  31.1864  31.8151
    31.9619  32.0507  32.3700  32.4960  32.7153  32.7687  33.1861  33.4342
    33.8259  34.0085  34.6192  35.0929  35.1825  35.6203  35.8284  35.9744
    36.5183  36.7527  36.8760  37.3326  37.7823  38.1410  38.1935  38.3194
    38.5576  38.6379  39.4206  39.4262  39.7422  39.8641  40.0858  40.7785
    41.5052  41.5306  41.8782  42.0587  42.3931  42.8337  43.2457  43.3365
    43.5797  43.8050  44.0532  44.1139  44.6238  44.8412  44.8451  45.2622
    45.5261  45.5381  45.8538  46.0437  46.2379  46.2723  46.5542  46.6180
    46.8191  46.9782  47.0247  47.3288  47.3747  47.5595  47.7942  47.9836
    48.1088  48.1851  48.4466  48.4634  48.7711  48.9437  49.1117  49.2749
    49.5255  49.5883  49.7113  49.8682  49.9567  49.9980  50.3114  50.3465
    50.4715  50.8950  51.0252  51.2780  51.4400  51.4455  51.7400  51.8397
    51.9852  52.0729  52.5077  52.7013  52.8815  52.9744  53.1139  53.2717
    53.3290  53.5336  53.8371  53.9366  54.1819  54.3218  54.4009  54.7341

          k = 0.3250 0.5629 0.0000 ( 14724 PWs)   bands (ev):

   -66.6299 -40.9495 -40.8949 -40.7889 -17.8779 -17.8541 -11.5559 -10.7180
   -10.1396  -9.5287  -8.9195  -8.1353  -5.9729  -4.1500  -2.9039  -2.2566
    -0.8373   1.3183   1.6610   3.6414   4.6145   5.3693   5.7059   5.9747
     6.0467   6.3847   7.0195   7.1686   7.4155   7.5042   7.5642   7.9008
     8.4348   9.1409   9.4482   9.7462   9.8526  10.5771  10.9628  11.6938
    12.5986  12.9041  13.3912  13.4769  13.8413  14.2458  14.6233  16.0230
    17.3747  17.7538  17.7613  18.1186  18.1854  19.0410  19.0591  19.5883
    19.7312  20.0800  20.9661  21.2086  21.3042  21.6129  22.0454  22.0878
    22.4565  22.6550  23.6502  23.7064  23.7710  23.9903  24.0132  25.2685
    25.4289  25.9465  26.4362  26.5914  26.6109  26.9273  27.1284  27.3663
    27.7650  27.7987  27.8202  28.1338  28.6830  28.8887  29.1041  29.1087
    29.6519  29.8498  30.1832  30.5108  30.6236  30.9864  31.1249  31.7021
    31.9679  32.1709  32.5170  32.5829  32.6560  32.9412  33.1611  33.4325
    33.6059  33.7954  34.5896  34.9406  35.1638  35.7984  35.8338  36.0229
    36.6584  36.7793  36.9336  37.0234  37.7790  38.0653  38.3429  38.4743
    38.6943  38.7285  39.2560  39.4001  39.4861  39.6182  39.7286  40.8695
    41.4776  41.7328  42.1457  42.1912  42.5932  42.7695  43.2457  43.2586
    43.5856  43.6846  43.9824  44.1665  44.8717  45.1941  45.2700  45.3257
    45.7325  45.8407  45.9000  46.0891  46.0990  46.2262  46.5338  46.7228
    46.8570  47.0748  47.1186  47.3824  47.4297  47.7257  47.7635  47.9309
    48.0138  48.0498  48.4926  48.5507  48.7923  48.7975  48.8228  49.1482
    49.3351  49.4504  49.6858  49.6890  50.0054  50.0730  50.3114  50.3808
    50.6058  50.8392  50.9539  51.2861  51.3995  51.5488  51.6219  51.7603
    51.9720  52.2200  52.4091  52.4159  52.8413  52.8599  53.0886  53.1215
    53.2628  53.3204  53.6682  53.9658  54.1555  54.5454  54.7338  54.8362

          k = 0.3333 0.5773 0.0000 ( 14718 PWs)   bands (ev):

   -66.6299 -40.9475 -40.8974 -40.7888 -17.8751 -17.8526 -11.5609 -10.6920
   -10.1668  -9.5342  -8.9125  -8.1434  -5.9650  -4.1597  -2.9073  -2.2474
    -0.8315   1.3399   1.6257   3.6519   4.6364   5.3871   5.7297   5.9714
     6.0408   6.4133   6.9763   7.2157   7.4823   7.4884   7.5152   7.8460
     8.4096   9.1860   9.4572   9.6742   9.8826  10.5564  10.9268  11.6936
    12.6066  12.8773  13.4723  13.4740  13.7985  14.1914  14.6033  16.0239
    17.4865  17.7002  17.8838  18.0167  18.1476  19.0307  19.0856  19.6315
    19.6819  20.1552  20.9799  21.2497  21.3669  21.4536  22.0523  22.0850
    22.4329  22.6645  23.6814  23.7067  23.8436  23.8804  23.9641  25.2570
    25.4443  26.0026  26.4548  26.7089  26.7431  26.9492  27.2677  27.3426
    27.4618  27.7614  27.8560  27.9823  28.7530  29.0736  29.1509  29.1914
    29.4781  29.6738  30.3319  30.4584  30.5864  30.9278  31.1072  31.6445
    31.9621  32.2636  32.5825  32.6268  32.6377  33.1542  33.1637  33.1937
    33.5691  33.6792  34.6001  34.8864  35.1762  35.8547  35.8806  36.0266
    36.7536  36.7806  36.8453  36.9494  37.7723  38.0345  38.4111  38.6194
    38.7315  38.8351  39.1026  39.3466  39.4574  39.4656  39.5929  40.9078
    41.4627  41.9068  42.1027  42.4198  42.6335  42.6888  43.1349  43.1580
    43.5994  43.7693  43.8318  44.3051  44.9083  45.1926  45.5117  45.7064
    45.7253  45.8466  45.8901  46.0737  46.0847  46.1832  46.3503  46.9228
    46.9658  47.1270  47.1399  47.1452  47.3071  47.7490  47.7967  47.9474
    48.2100  48.3238  48.4328  48.5149  48.6879  48.6998  48.8823  48.9917
    49.2102  49.2130  49.6415  49.7708  50.0074  50.1494  50.2286  50.4462
    50.7142  50.7867  50.9994  51.3048  51.3610  51.4394  51.6913  51.8710
    51.9071  52.1414  52.2279  52.6843  52.6957  52.7112  53.0775  53.1197
    53.2022  53.3321  53.5283  54.0753  54.1707  54.5630  54.6739  54.7635

          k = 0.3375 0.5701 0.0000 ( 14726 PWs)   bands (ev):

   -66.6299 -40.9481 -40.8967 -40.7888 -17.8757 -17.8530 -11.5597 -10.6989
   -10.1599  -9.5325  -8.9142  -8.1415  -5.9669  -4.1573  -2.9063  -2.2496
    -0.8330   1.3325   1.6365   3.6495   4.6311   5.3833   5.7216   5.9722
     6.0426   6.4060   6.9881   7.1982   7.4710   7.4973   7.5233   7.8565
     8.4189   9.1810   9.4413   9.7001   9.8750  10.5580  10.9390  11.6941
    12.6045  12.8837  13.4551  13.4741  13.7992  14.2117  14.6084  16.0241
    17.4570  17.7122  17.8409  18.0543  18.1599  19.0331  19.0784  19.6062
    19.7098  20.1355  20.9793  21.2618  21.3145  21.5007  22.0566  22.0848
    22.4387  22.6607  23.6769  23.7063  23.8062  23.9236  23.9767  25.2615
    25.4416  25.9749  26.4471  26.6562  26.7185  26.9500  27.2985  27.3078
    27.5543  27.7665  27.8268  28.0282  28.7129  28.9592  29.1971  29.2155
    29.5145  29.7165  30.2847  30.5116  30.5571  30.9393  31.1243  31.6528
    31.9643  32.2303  32.5737  32.6003  32.6331  33.1176  33.1649  33.2698
    33.5716  33.7105  34.6000  34.8960  35.1672  35.8373  35.8626  36.0367
    36.7225  36.7825  36.8843  36.9604  37.7705  38.0411  38.3963  38.5296
    38.7837  38.7945  39.1486  39.3773  39.4206  39.5462  39.6099  40.8985
    41.4590  41.8203  42.1620  42.3353  42.6491  42.7267  43.1584  43.1870
    43.5998  43.7050  43.8833  44.2840  44.9018  45.1935  45.4675  45.5963
    45.6934  45.8395  45.9394  46.0379  46.0620  46.2268  46.4014  46.8356
    47.0624  47.0705  47.1172  47.1953  47.3216  47.7229  47.8732  47.9109
    48.1751  48.2068  48.4503  48.5327  48.6661  48.7612  48.8034  49.0746
    49.2623  49.2741  49.6658  49.7625  50.0219  50.0602  50.2907  50.3946
    50.7369  50.8332  50.9624  51.3066  51.3567  51.4309  51.6692  51.8530
    51.9144  52.1641  52.2856  52.5683  52.7305  52.8361  53.0812  53.1256
    53.1624  53.3327  53.5892  53.9865  54.1952  54.6260  54.6455  54.8137

          k = 0.3416 0.5629 0.0000 ( 14732 PWs)   bands (ev):

   -66.6299 -40.9497 -40.8947 -40.7889 -17.8777 -17.8540 -11.5561 -10.7184
   -10.1411  -9.5269  -8.9191  -8.1359  -5.9723  -4.1504  -2.9034  -2.2560
    -0.8377   1.3114   1.6673   3.6426   4.6156   5.3726   5.6950   5.9738
     6.0500   6.3853   7.0225   7.1512   7.4298   7.5164   7.5666   7.8749
     8.4499   9.1718   9.4004   9.7656   9.8543  10.5579  10.9784  11.6959
    12.5988  12.9023  13.4155  13.4736  13.7876  14.2744  14.6234  16.0256
    17.3916  17.7238  17.7611  18.1175  18.1977  19.0402  19.0582  19.5601
    19.7637  20.0806  20.9787  21.2462  21.2931  21.5447  22.0781  22.0834
    22.4531  22.6523  23.6543  23.7071  23.7787  23.9772  24.0109  25.2761
    25.4336  25.8816  26.4006  26.5326  26.6891  26.9492  27.3371  27.3620
    27.6823  27.7845  27.7886  28.1099  28.6045  28.7692  29.2405  29.2990
    29.5836  29.8100  30.2215  30.4843  30.5937  30.9702  31.1655  31.6723
    31.9669  32.1391  32.4376  32.6090  32.6619  33.1466  33.1786  33.3358
    33.5848  33.7916  34.6053  34.9179  35.1327  35.7809  35.8246  36.0724
    36.6783  36.7876  36.8943  37.0441  37.7611  38.0552  38.3563  38.3573
    38.7457  38.8710  39.1865  39.4560  39.4566  39.6490  39.6679  40.8731
    41.4297  41.6421  42.2083  42.2730  42.6002  42.8540  43.2129  43.2468
    43.5863  43.6170  43.9290  44.2535  44.8835  45.1619  45.3694  45.4470
    45.6522  45.7532  45.8979  45.9898  46.0312  46.2883  46.5438  46.7485
    46.9891  47.0909  47.2096  47.2703  47.2703  47.6747  47.8505  47.9213
    48.1511  48.1803  48.4025  48.4102  48.6309  48.8258  48.8845  49.0278
    49.4314  49.4969  49.6719  49.7509  49.9443  50.0622  50.3135  50.3470
    50.7555  50.9401  50.9497  51.1806  51.3919  51.4427  51.6065  51.7870
    51.9875  52.2285  52.4001  52.4610  52.8291  52.9260  53.0366  53.1631
    53.1695  53.3436  53.7143  53.8119  54.2498  54.5515  54.8048  54.9023

          k = 0.3458 0.5556 0.0000 ( 14732 PWs)   bands (ev):

   -66.6300 -40.9521 -40.8916 -40.7890 -17.8807 -17.8557 -11.5502 -10.7481
   -10.1139  -9.5165  -8.9270  -8.1272  -5.9810  -4.1391  -2.8984  -2.2663
    -0.8455   1.2806   1.7139   3.6317   4.5909   5.3555   5.6484   5.9752
     6.0661   6.3530   7.0748   7.0876   7.3803   7.5247   7.6461   7.8864
     8.5047   9.1636   9.3491   9.8245   9.8514  10.5519  11.0446  11.6989
    12.5902  12.9322  13.3660  13.4721  13.7596  14.3709  14.6472  16.0295
    17.3116  17.6714  17.7173  18.1777  18.2563  19.0294  19.0522  19.5055
    19.8293  19.9992  20.9782  21.1879  21.3364  21.5544  22.0794  22.1173
    22.4723  22.6482  23.6077  23.7122  23.7809  24.0273  24.0599  25.3003
    25.4136  25.7368  26.2401  26.4659  26.6805  26.9481  27.4112  27.4118
    27.7731  27.7823  27.8506  28.1664  28.5042  28.5661  29.3044  29.3757
    29.6510  29.9203  30.1810  30.4029  30.6700  31.0169  31.2031  31.6985
    31.9477  32.0129  32.2973  32.6031  32.7246  33.1881  33.2151  33.3842
    33.6165  33.9017  34.6190  34.9454  35.0653  35.6989  35.7887  36.1257
    36.6321  36.7904  36.8763  37.1754  37.7456  38.0361  38.1988  38.2961
    38.7409  38.9644  39.1640  39.5524  39.5773  39.7078  39.8143  40.8325
    41.3524  41.4330  42.1185  42.3921  42.5428  42.9799  43.2761  43.2924
    43.5226  43.5691  43.9496  44.2472  44.8522  45.0347  45.3057  45.3062
    45.5897  45.6537  45.7036  45.9457  46.0759  46.3216  46.6212  46.7118
    46.9493  47.0820  47.1028  47.3445  47.3514  47.7002  47.7579  47.8213
    48.1411  48.2062  48.3418  48.3863  48.6606  48.8113  48.9551  49.0242
    49.5852  49.5946  49.7220  49.7784  49.9499  50.0075  50.3732  50.4038
    50.6987  50.9597  50.9895  51.1122  51.3728  51.5026  51.5551  51.7295
    52.0895  52.3013  52.4058  52.5119  52.8792  52.8978  53.0092  53.2437
    53.3055  53.3790  53.6683  53.8367  54.3130  54.4738  54.9180  54.9878

          k = 0.3500 0.5484 0.0000 ( 14732 PWs)   bands (ev):

   -66.6300 -40.9553 -40.8876 -40.7891 -17.8849 -17.8581 -11.5422 -10.7851
   -10.0824  -9.4999  -8.9373  -8.1157  -5.9925  -4.1239  -2.8911  -2.2803
    -0.8566   1.2441   1.7721   3.6175   4.5580   5.3320   5.5839   5.9744
     6.0922   6.3111   7.0159   7.1326   7.3383   7.5297   7.7447   7.8865
     8.5804   9.1575   9.2954   9.7896   9.9485  10.5407  11.1331  11.7030
    12.5796  12.9723  13.3129  13.4697  13.7211  14.4888  14.6781  16.0371
    17.2246  17.5766  17.6936  18.2272  18.3241  18.9978  19.0699  19.4441
    19.9003  19.9034  20.9777  21.1414  21.3840  21.5350  22.0724  22.1540
    22.4942  22.6644  23.5486  23.7241  23.7996  24.0757  24.1168  25.3289
    25.3425  25.6062  26.0287  26.4333  26.6775  26.9463  27.4244  27.4854
    27.8107  27.8133  27.9758  28.1336  28.3773  28.5174  29.3558  29.4457
    29.6954  30.0274  30.1796  30.3507  30.7310  31.0763  31.2148  31.7115
    31.8580  31.8908  32.2373  32.6097  32.7934  33.1892  33.2761  33.4402
    33.6676  34.0238  34.6319  34.9691  34.9774  35.6127  35.7642  36.1844
    36.5810  36.7829  36.8556  37.3229  37.7370  37.8755  38.1781  38.2223
    38.7850  39.0638  39.1215  39.6273  39.7286  39.8035  39.9766  40.7686
    41.2142  41.2404  42.0655  42.4959  42.5098  43.0658  43.2954  43.3294
    43.4165  43.6024  43.9577  44.2635  44.8033  44.8468  45.1707  45.2534
    45.4468  45.5194  45.6215  45.8630  46.1399  46.3323  46.5320  46.7224
    46.8375  47.0531  47.0936  47.3638  47.3775  47.6238  47.7291  47.8802
    48.1012  48.1611  48.2677  48.4578  48.7191  48.8095  48.9686  49.1137
    49.4563  49.6006  49.7491  49.8676  50.0949  50.1326  50.3662  50.5929
    50.6330  50.8554  50.8902  51.1667  51.4336  51.5445  51.5617  51.7390
    52.1931  52.2781  52.4506  52.6057  52.7991  52.9156  53.0231  53.2251
    53.4529  53.4720  53.7123  53.9323  54.3750  54.3901  54.8727  54.8739

          k = 0.3541 0.5412 0.0000 ( 14724 PWs)   bands (ev):

   -66.6301 -40.9588 -40.8829 -40.7893 -17.8902 -17.8610 -11.5320 -10.8270
   -10.0503  -9.4759  -8.9498  -8.1019  -6.0064  -4.1052  -2.8815  -2.2976
    -0.8709   1.2043   1.8391   3.6005   4.5181   5.3014   5.5063   5.9696
     6.1274   6.2619   6.9412   7.1617   7.3382   7.5324   7.8565   7.8771
     8.6712   9.1514   9.2447   9.7532  10.0535  10.5268  11.2380  11.7072
    12.5680  13.0210  13.2592  13.4675  13.6773  14.6199  14.7137  16.0503
    17.1340  17.4781  17.6579  18.2610  18.3888  18.9698  19.0956  19.3772
    19.7917  19.9833  20.9780  21.1062  21.4295  21.4986  22.0624  22.1641
    22.5137  22.7197  23.4838  23.7429  23.8241  24.1265  24.1758  25.1687
    25.3453  25.5638  25.8288  26.4037  26.6635  26.9296  27.4244  27.5110
    27.8098  27.8539  28.0873  28.1070  28.2553  28.6211  29.3679  29.5052
    29.7122  30.1158  30.2219  30.3631  30.7708  31.1413  31.1887  31.6357
    31.7150  31.8630  32.2630  32.6338  32.8647  33.1472  33.3584  33.4977
    33.7411  34.1422  34.6240  34.8615  35.0135  35.5470  35.7471  36.2353
    36.5221  36.7634  36.8413  37.4741  37.6642  37.7517  38.1422  38.2128
    38.8669  39.0783  39.1718  39.6628  39.8811  39.9374  40.1485  40.6610
    41.0018  41.1445  42.0112  42.4734  42.6196  43.0452  43.2913  43.3338
    43.3610  43.6880  43.9736  44.2732  44.6523  44.7294  45.0334  45.1765
    45.2090  45.4661  45.6100  45.7695  46.1931  46.2651  46.4624  46.5776
    46.7692  46.9876  47.1773  47.2697  47.2982  47.6069  47.7428  47.9210
    48.1115  48.1936  48.2605  48.4098  48.7035  48.8653  49.0035  49.1769
    49.4011  49.5280  49.7973  49.8597  50.3068  50.3196  50.3613  50.5780
    50.7046  50.7539  50.8627  51.1562  51.5220  51.5980  51.6687  51.8134
    52.2044  52.2796  52.4701  52.6848  52.7879  52.9167  53.0610  53.1013
    53.5725  53.6036  53.9110  54.0052  54.3096  54.4227  54.7893  54.8337

          k = 0.3583 0.5340 0.0000 ( 14712 PWs)   bands (ev):

   -66.6302 -40.9627 -40.8776 -40.7895 -17.8963 -17.8645 -11.5198 -10.8721
   -10.0206  -9.4434  -8.9639  -8.0863  -6.0223  -4.0834  -2.8693  -2.3179
    -0.8885   1.1628   1.9130   3.5813   4.4722   5.2606   5.4233   5.9580
     6.1694   6.2072   6.8667   7.1374   7.4037   7.5334   7.8615   7.9785
     8.7709   9.1362   9.2069   9.7186  10.1650  10.5123  11.3550  11.7108
    12.5561  13.0765  13.2065  13.4675  13.6312  14.7510  14.7595  16.0706
    17.0412  17.3766  17.6141  18.2745  18.4395  18.9504  19.1320  19.3076
    19.6795  20.0661  20.9804  21.0806  21.4546  21.4683  22.0496  22.1418
    22.5268  22.8162  23.4145  23.7680  23.8485  24.1838  24.2329  24.9391
    25.3031  25.5770  25.6949  26.3760  26.6285  26.8811  27.4384  27.4453
    27.7235  27.9117  28.1120  28.1831  28.3098  28.7542  29.3292  29.5344
    29.7321  30.1936  30.2901  30.4392  30.7854  31.1162  31.1959  31.5162
    31.5920  31.8991  32.3300  32.6768  32.9383  33.0800  33.4566  33.5390
    33.8391  34.2309  34.5756  34.7753  35.0466  35.5293  35.7291  36.2587
    36.4533  36.7475  36.8387  37.4458  37.6272  37.7966  38.0601  38.2601
    38.9737  39.0417  39.2899  39.6674  40.0093  40.0826  40.3246  40.5081
    40.8202  41.0993  41.9299  42.4687  42.7126  42.9639  43.1465  43.3715
    43.4085  43.7931  44.0066  44.2365  44.4850  44.6202  44.8610  45.0269
    45.1030  45.4155  45.6304  45.6808  46.1087  46.2103  46.3427  46.4764
    46.7969  46.8245  47.1225  47.1714  47.2681  47.6804  47.7435  47.8983
    48.0515  48.2060  48.3663  48.3910  48.6818  48.8357  49.0751  49.0926
    49.4357  49.6163  49.7499  49.9375  50.3446  50.3478  50.4323  50.5029
    50.7135  50.7988  51.0590  51.0986  51.6176  51.7305  51.8143  51.8879
    52.1004  52.3256  52.4673  52.7536  52.7939  52.8991  53.0428  53.1396
    53.6625  53.7257  54.0693  54.1063  54.2708  54.4535  54.7347  54.8751

          k = 0.3625 0.5268 0.0000 ( 14712 PWs)   bands (ev):

   -66.6304 -40.9668 -40.8720 -40.7898 -17.9033 -17.8685 -11.5057 -10.9192
    -9.9954  -9.4017  -8.9792  -8.0695  -6.0397  -4.0589  -2.8544  -2.3409
    -0.9093   1.1205   1.9927   3.5603   4.4213   5.2014   5.3468   5.9363
     6.1498   6.2158   6.7949   7.0930   7.5006   7.5336   7.8428   8.1086
     8.8732   9.1003   9.1938   9.6896  10.2825  10.4989  11.4804  11.7128
    12.5444  13.1357  13.1558  13.4732  13.5844  14.7872  14.9049  16.1000
    16.9473  17.2727  17.5646  18.2655  18.4676  18.9400  19.1807  19.2405
    19.5692  20.1488  20.9861  21.0622  21.4097  21.4971  22.0349  22.0962
    22.5361  22.9387  23.3392  23.7974  23.8704  24.2499  24.2857  24.6922
    25.1653  25.6148  25.6643  26.3540  26.5573  26.8136  27.2771  27.4832
    27.6315  27.9572  28.1623  28.3050  28.4435  28.8960  29.2541  29.5140
    29.7900  30.2818  30.3506  30.5411  30.7762  30.9946  31.2182  31.4258
    31.5475  31.9404  32.4179  32.7365  32.9985  33.0143  33.5647  33.5654
    33.9533  34.2480  34.4806  34.7608  35.0677  35.5742  35.7038  36.2346
    36.3736  36.7608  36.8455  37.2485  37.7614  37.8653  37.9806  38.3173
    39.0066  39.1051  39.4179  39.6428  40.0622  40.1672  40.3936  40.4992
    40.7230  41.0959  41.8264  42.4467  42.7677  42.9070  42.9985  43.3726
    43.4579  43.8902  44.0445  44.1604  44.3503  44.4794  44.6263  44.9485
    45.0720  45.3430  45.5920  45.6618  45.9320  46.1080  46.2283  46.4961
    46.5962  46.8551  46.9487  47.0708  47.3325  47.6999  47.7957  47.8365
    48.0231  48.1102  48.3471  48.4692  48.6583  48.8018  49.1018  49.1514
    49.3256  49.7355  49.8719  49.9411  50.2669  50.2878  50.3585  50.5526
    50.8932  50.9387  51.0485  51.1915  51.7897  51.8745  51.9195  51.9644
    51.9865  52.3322  52.5110  52.7651  52.7849  52.8819  53.1209  53.2103
    53.7032  53.9009  54.1059  54.1994  54.3041  54.5167  54.6773  54.8711

          k = 0.3666 0.5196 0.0000 ( 14720 PWs)   bands (ev):

   -66.6305 -40.9710 -40.8661 -40.7901 -17.9111 -17.8730 -11.4899 -10.9675
    -9.9755  -9.3506  -8.9955  -8.0518  -6.0582  -4.0323  -2.8369  -2.3663
    -0.9333   1.0779   2.0771   3.5382   4.3661   5.1163   5.2871   5.9002
     6.0936   6.2635   6.7276   7.0474   7.5337   7.6090   7.8239   8.2451
     8.9716   9.0535   9.1958   9.6712  10.4055  10.4877  11.6118  11.7121
    12.5330  13.1082  13.1940  13.4898  13.5381  14.8197  15.0543  16.1400
    16.8530  17.1668  17.5107  18.2353  18.4684  18.9303  19.1865  19.2380
    19.4687  20.2272  20.9961  21.0487  21.3692  21.5149  22.0185  22.0373
    22.5440  23.0717  23.2558  23.8293  23.8896  24.3230  24.3309  24.4446
    24.9847  25.6665  25.6830  26.3435  26.4353  26.7597  27.0715  27.4650
    27.6249  27.9850  28.2668  28.4381  28.5882  29.0193  29.1875  29.4610
    29.8777  30.3558  30.3725  30.6406  30.7715  30.8463  31.2241  31.3759
    31.5835  31.9772  32.5185  32.8077  32.9086  33.0901  33.5848  33.6737
    34.0709  34.1927  34.3495  34.8311  35.0797  35.6678  35.6679  36.1672
    36.2836  36.8110  36.8337  37.0992  37.8756  37.8789  37.9739  38.3861
    38.9877  39.2417  39.5498  39.5853  39.9923  40.0565  40.4778  40.6657
    40.7626  41.1102  41.7238  42.3765  42.7116  42.9060  42.9223  43.3711
    43.4335  43.9382  44.0534  44.1277  44.2442  44.3379  44.3869  44.9258
    45.0877  45.2404  45.4726  45.6680  45.7730  45.9862  46.1669  46.3114
    46.6118  46.7654  46.8127  47.0493  47.3821  47.6156  47.7545  47.9033
    47.9937  48.0132  48.3042  48.4160  48.5914  48.9355  49.1047  49.1379
    49.3008  49.7221  49.9501  50.0597  50.1584  50.1634  50.3628  50.7462
    50.9404  51.0699  51.1277  51.2364  51.8382  51.8607  51.9724  52.0637
    52.1821  52.3394  52.5825  52.7456  52.7641  52.9438  53.2179  53.2587
    53.7942  54.0620  54.1370  54.2310  54.3771  54.5477  54.6049  54.7959

          k = 0.3708 0.5124 0.0000 ( 14726 PWs)   bands (ev):

   -66.6307 -40.9753 -40.8599 -40.7904 -17.9196 -17.8779 -11.4723 -11.0162
    -9.9612  -9.2908  -9.0122  -8.0337  -6.0774  -4.0039  -2.8166  -2.3938
    -0.9604   1.0353   2.1658   3.5151   4.3075   5.0110   5.2412   5.8460
     6.0423   6.3094   6.6661   7.0074   7.5344   7.7180   7.8116   8.3863
     9.0057   9.0581   9.2037   9.6703  10.4796  10.5337  11.7083  11.7469
    12.5215  13.0646  13.2454  13.4927  13.5238  14.8463  15.2063  16.1918
    16.7590  17.0594  17.4534  18.1879  18.4407  18.9037  19.1619  19.2739
    19.4082  20.2959  21.0112  21.0373  21.3383  21.5216  21.9724  22.0008
    22.5513  23.1613  23.2031  23.8622  23.9070  24.1860  24.3887  24.3925
    24.8125  25.7043  25.7193  26.2793  26.3496  26.7281  26.8512  27.3953
    27.6876  28.0078  28.3919  28.5658  28.7354  29.0187  29.2591  29.3915
    29.9807  30.2786  30.4121  30.7044  30.7541  30.8074  31.2520  31.3628
    31.6554  32.0115  32.6250  32.8152  32.8835  33.1568  33.6030  33.7646
    34.1342  34.1366  34.2427  34.9429  35.0924  35.6203  35.7731  36.0933
    36.1856  36.7399  36.8851  37.0656  37.8014  37.9641  38.0652  38.4635
    38.9806  39.3809  39.4669  39.6914  39.8514  39.9301  40.6022  40.8202
    40.8932  41.1238  41.6561  42.2655  42.5539  42.9187  42.9437  43.3178
    43.3553  43.9249  43.9599  44.0596  44.1840  44.2635  44.2961  44.9350
    45.0953  45.1308  45.3275  45.5292  45.7449  45.9244  46.0831  46.0882
    46.5633  46.7189  46.7554  47.0172  47.4150  47.5412  47.6790  47.8352
    47.9660  47.9785  48.2754  48.3179  48.6636  48.9777  49.0135  49.0651
    49.3948  49.6112  50.0216  50.0472  50.0990  50.1751  50.5431  50.7754
    51.0724  51.1669  51.2212  51.2287  51.7495  51.8237  51.9482  52.3432
    52.3505  52.4487  52.5517  52.7766  52.8584  53.0146  53.1990  53.4110
    53.8785  54.1113  54.2192  54.3442  54.4411  54.4536  54.5542  54.7920

          k = 0.3750 0.5051 0.0000 ( 14736 PWs)   bands (ev):

   -66.6308 -40.9795 -40.8536 -40.7907 -17.9288 -17.8832 -11.4533 -11.0651
    -9.9519  -9.2233  -9.0292  -8.0154  -6.0970  -3.9743  -2.7934  -2.4230
    -0.9903   0.9930   2.2580   3.4915   4.2458   4.8943   5.2016   5.7739
     5.9969   6.3493   6.6105   6.9773   7.5362   7.7674   7.8643   8.5289
     8.9615   9.1237   9.2150   9.6949  10.4755  10.6663  11.7010  11.8836
    12.5094  13.0263  13.2854  13.4486  13.5800  14.8657  15.3592  16.2558
    16.6664  16.9512  17.3929  18.1283  18.3871  18.8513  19.1733  19.2266
    19.4466  20.3487  21.0252  21.0319  21.3224  21.5184  21.9072  21.9817
    22.5574  23.0537  23.3185  23.8941  23.9226  23.9534  24.4172  24.4378
    24.7037  25.7107  25.7385  26.1389  26.3671  26.6382  26.7127  27.3288
    27.7479  28.0300  28.5217  28.6634  28.8797  28.9902  29.3118  29.4105
    30.0733  30.1753  30.3103  30.7193  30.8174  30.8684  31.3117  31.3840
    31.7370  32.0488  32.6918  32.7616  32.9576  33.1940  33.6231  33.8109
    33.9943  34.1472  34.3218  35.0629  35.1143  35.5600  35.8065  36.0857
    36.0999  36.5995  36.9692  37.1140  37.7198  38.0285  38.1570  38.5341
    38.9861  39.3093  39.4826  39.7393  39.7710  39.9122  40.6664  40.9532
    41.0568  41.1515  41.6508  42.1313  42.3866  42.9154  42.9902  43.1525
    43.2953  43.7546  43.7813  44.0644  44.1002  44.2519  44.4090  44.9197
    44.9586  45.1445  45.2117  45.3425  45.7363  45.8573  45.8832  46.0467
    46.3902  46.7243  46.8277  46.8975  47.4182  47.5232  47.6080  47.6817
    47.8912  47.8990  48.2796  48.3677  48.7297  48.8310  48.9954  49.0215
    49.4355  49.4448  49.9202  50.0502  50.2119  50.3224  50.6959  50.7679
    51.1015  51.1768  51.3096  51.3346  51.7093  51.8010  51.8998  52.3889
    52.4252  52.6649  52.6980  52.8581  52.9915  53.0767  53.2185  53.5457
    53.9159  54.1010  54.2654  54.3033  54.4660  54.5199  54.5847  54.7595

          k = 0.3791 0.4979 0.0000 ( 14748 PWs)   bands (ev):

   -66.6310 -40.9838 -40.8472 -40.7911 -17.9384 -17.8889 -11.4328 -11.1137
    -9.9470  -9.1492  -9.0461  -7.9974  -6.1166  -3.9437  -2.7673  -2.4538
    -1.0230   0.9511   2.3532   3.4677   4.1817   4.7712   5.1649   5.6878
     5.9553   6.3789   6.5606   6.9607   7.5392   7.7590   7.9797   8.6641
     8.9294   9.1632   9.2295   9.7491  10.4766  10.8027  11.6905  12.0191
    12.4960  12.9954  13.3152  13.4063  13.6572  14.8778  15.5110  16.3317
    16.5769  16.8426  17.3296  18.0608  18.3115  18.7820  19.1512  19.2095
    19.5243  20.3795  21.0099  21.0584  21.3249  21.5069  21.8476  21.9609
    22.5598  22.9319  23.3836  23.7612  23.9291  23.9330  24.3414  24.4971
    24.7207  25.6526  25.6980  26.0918  26.3185  26.5159  26.7111  27.2730
    27.7789  28.0528  28.6475  28.7054  29.0005  29.0421  29.2388  29.5739
    30.0007  30.1307  30.2440  30.7436  30.9172  30.9315  31.3989  31.4322
    31.8185  32.0953  32.6061  32.8558  33.0214  33.1797  33.6428  33.8263
    33.8407  34.2386  34.4126  35.1526  35.1718  35.4833  35.7362  35.9979
    36.2216  36.4670  37.0533  37.1909  37.6406  38.0749  38.2331  38.5616
    38.9967  39.1523  39.4442  39.7583  39.7970  40.0279  40.6287  41.0414
    41.2339  41.2359  41.7002  41.9850  42.2406  42.9065  42.9699  43.0340
    43.1740  43.5149  43.6034  44.0058  44.1824  44.2648  44.5145  44.7289
    44.9652  45.0818  45.1618  45.1708  45.6194  45.7734  45.8147  46.0643
    46.2295  46.6909  46.7406  46.9497  47.3437  47.5046  47.5538  47.5657
    47.7925  47.8056  48.3219  48.4213  48.7035  48.7719  48.9230  49.0112
    49.2710  49.4324  49.8418  50.0041  50.4346  50.4695  50.5996  50.9619
    50.9984  51.1114  51.3891  51.5336  51.6611  51.7666  51.9265  52.3608
    52.4442  52.8263  52.9536  52.9843  53.0717  53.1572  53.3144  53.6184
    53.9533  54.0215  54.2345  54.2765  54.4709  54.5745  54.6433  54.9014

          k = 0.3833 0.4907 0.0000 ( 14756 PWs)   bands (ev):

   -66.6312 -40.9880 -40.8407 -40.7914 -17.9485 -17.8949 -11.4111 -11.1618
    -9.9456  -9.0697  -9.0627  -7.9798  -6.1361  -3.9127  -2.7383  -2.4858
    -1.0582   0.9098   2.4510   3.4438   4.1153   4.6442   5.1297   5.5923
     5.9151   6.3947   6.5154   6.9601   7.5434   7.7492   8.1012   8.7541
     8.9456   9.1797   9.2488   9.8287  10.4845  10.9413  11.6775  12.1497
    12.4807  12.9751  13.3393  13.3660  13.7502  14.8828  15.6576  16.4187
    16.4939  16.7347  17.2632  17.9886  18.2190  18.7059  19.0773  19.2589
    19.6061  20.3842  20.9900  21.0906  21.3428  21.4886  21.8016  21.9383
    22.5518  22.7971  23.3210  23.6927  23.9273  23.9636  24.2363  24.5715
    24.8014  25.4714  25.6692  26.1269  26.1374  26.5507  26.7259  27.2285
    27.7644  28.0776  28.7303  28.7613  28.9951  29.1558  29.2694  29.7391
    29.9016  29.9365  30.3739  30.7428  30.9897  31.0368  31.4945  31.5045
    31.8962  32.1554  32.5075  32.9466  33.0306  33.1532  33.6172  33.7218
    33.9015  34.3639  34.4816  35.2136  35.2552  35.3831  35.6414  35.9414
    36.3604  36.3798  37.1285  37.2794  37.5697  38.1099  38.2818  38.4925
    38.9860  39.0562  39.3867  39.7584  39.9466  40.1391  40.5465  41.0646
    41.3477  41.4216  41.7402  41.8725  42.1306  42.8116  42.8968  43.0102
    43.0424  43.2744  43.4308  43.9669  44.2356  44.2927  44.5550  44.6115
    44.8930  45.0232  45.0245  45.1099  45.4747  45.7233  45.8221  46.0901
    46.1086  46.4889  46.7443  47.0301  47.2085  47.4279  47.4930  47.5645
    47.7114  47.7167  48.3023  48.4589  48.6295  48.7356  48.9115  48.9872
    49.1676  49.3703  49.8081  49.9689  50.4815  50.5681  50.6117  50.9642
    50.9956  51.1362  51.3771  51.6436  51.6929  51.7394  52.0247  52.3292
    52.5076  52.9502  53.0106  53.0301  53.2700  53.3089  53.4128  53.5807
    53.9570  54.0316  54.2405  54.2883  54.5753  54.6097  54.6221  55.0804

          k = 0.3875 0.4835 0.0000 ( 14754 PWs)   bands (ev):

   -66.6314 -40.9922 -40.8341 -40.7918 -17.9591 -17.9011 -11.3884 -11.2093
    -9.9470  -9.0788  -8.9858  -7.9630  -6.1551  -3.8815  -2.7064  -2.5187
    -1.0958   0.8692   2.5509   3.4201   4.0471   4.5148   5.0955   5.4912
     5.8752   6.3954   6.4738   6.9750   7.5486   7.7438   8.2224   8.7570
     9.0470   9.1820   9.2774   9.9228  10.5022  11.0798  11.6640  12.2692
    12.4634  12.9707  13.3281  13.3615  13.8542  14.8821  15.7907  16.4251
    16.5146  16.6287  17.1939  17.9141  18.1148  18.6282  19.0078  19.3152
    19.6835  20.3627  20.9655  21.1278  21.3638  21.4642  21.7811  21.9138
    22.5194  22.6533  23.1728  23.7136  23.8824  24.0004  24.1700  24.6659
    24.8928  25.2561  25.6288  25.9446  26.1771  26.6222  26.7622  27.1943
    27.7044  28.1049  28.7785  28.8494  28.8704  29.2884  29.3999  29.7350
    29.8457  29.9148  30.5126  30.7296  31.0441  31.1582  31.5617  31.6170
    31.9687  32.2267  32.4105  32.9354  32.9897  33.1913  33.5270  33.7367
    33.9885  34.4997  34.5249  35.2534  35.2992  35.3109  35.5538  35.9207
    36.2949  36.5394  37.1844  37.3718  37.5197  38.1383  38.2930  38.3234
    38.9361  39.0224  39.4132  39.7905  40.1131  40.1518  40.5409  41.0179
    41.4317  41.6066  41.6226  41.9401  42.0490  42.6849  42.8315  42.8800
    43.0105  43.0637  43.2812  43.9153  44.1746  44.3141  44.5193  44.6400
    44.7635  44.9064  44.9563  45.0701  45.3826  45.7148  45.8446  45.9760
    46.1628  46.2692  46.7709  46.8902  47.2390  47.3310  47.4622  47.5462
    47.6124  47.6757  48.1906  48.4787  48.6089  48.6348  48.9446  48.9574
    49.1514  49.2798  49.8118  49.9466  50.3536  50.5950  50.6068  50.9510
    51.1211  51.1279  51.3052  51.6180  51.7968  51.8805  52.0726  52.3568
    52.5757  52.9558  53.0145  53.0675  53.4424  53.4532  53.4832  53.5004
    53.9819  54.1166  54.3179  54.3609  54.6249  54.6322  54.7646  55.2490

          k = 0.3916 0.4763 0.0000 ( 14748 PWs)   bands (ev):

   -66.6316 -40.9962 -40.8275 -40.7922 -17.9699 -17.9076 -11.3647 -11.2559
    -9.9506  -9.0943  -8.8984  -7.9470  -6.1736  -3.8504  -2.6716  -2.5523
    -1.1354   0.8293   2.6521   3.3966   3.9773   4.3837   5.0621   5.3872
     5.8353   6.3828   6.4349   7.0018   7.5545   7.7454   8.3402   8.7252
     9.1636   9.1794   9.3329  10.0193  10.5344  11.2131  11.6545  12.3690
    12.4444  12.9900  13.2935  13.3832  13.9655  14.8773  15.8908  16.3888
    16.5217  16.6216  17.1218  17.8391  18.0039  18.5516  18.9423  19.3752
    19.7521  20.3180  20.9363  21.1675  21.3707  21.4340  21.7988  21.8875
    22.4403  22.5077  23.0476  23.7390  23.7921  24.0377  24.1561  24.7811
    24.9717  25.0325  25.5789  25.7799  26.2127  26.6998  26.8213  27.1695
    27.6151  28.1333  28.6986  28.8452  28.9192  29.4111  29.5485  29.5721
    29.8447  30.0771  30.6552  30.7173  31.0974  31.2682  31.6343  31.7237
    32.0325  32.2890  32.3224  32.8270  32.9427  33.2416  33.5178  33.7697
    34.0811  34.5478  34.6358  35.1058  35.3467  35.4006  35.4879  35.9067
    36.2923  36.6754  37.2178  37.4620  37.5074  38.1050  38.1634  38.2598
    38.8834  38.9990  39.5058  39.8459  40.0649  40.2792  40.6436  40.9232
    41.3579  41.5585  41.7784  41.9647  42.0601  42.6121  42.6441  42.7876
    42.9189  42.9881  43.1712  43.8415  44.0510  44.2715  44.4482  44.6736
    44.7342  44.7827  44.8339  45.1111  45.3263  45.7235  45.8640  45.8925
    46.0655  46.2191  46.6952  46.7934  47.2156  47.2373  47.5045  47.5103
    47.5304  47.6632  48.0149  48.4984  48.5181  48.6005  48.9243  48.9580
    49.1856  49.2128  49.8392  49.9326  50.2216  50.5391  50.5647  50.9261
    50.9659  51.2944  51.3460  51.5478  51.9731  52.0044  52.0724  52.3886
    52.6424  52.8393  53.0525  53.0713  53.4451  53.5183  53.5577  53.6040
    54.0936  54.1658  54.3800  54.5147  54.6841  54.7200  54.9920  55.3562

          k = 0.3958 0.4691 0.0000 ( 14740 PWs)   bands (ev):

   -66.6318 -41.0002 -40.8210 -40.7926 -17.9809 -17.9143 -11.3402 -11.3015
    -9.9559  -9.1090  -8.8081  -7.9320  -6.1914  -3.8198  -2.6339  -2.5863
    -1.1769   0.7902   2.7542   3.3734   3.9063   4.2519   5.0295   5.2827
     5.7954   6.3605   6.3979   7.0349   7.5604   7.7559   8.4511   8.6861
     9.1797   9.2380   9.4454  10.1066  10.5872  11.3291  11.6599  12.4248
    12.4403  13.0390  13.2646  13.4047  14.0813  14.8706  15.9279  16.4126
    16.4217  16.7306  17.0483  17.7648  17.8906  18.4777  18.8798  19.4369
    19.8088  20.2545  20.9024  21.2016  21.3560  21.4002  21.8522  21.8595
    22.3076  22.3714  22.9812  23.6781  23.7493  24.0723  24.1712  24.8019
    24.9250  25.0109  25.5169  25.6782  26.2256  26.7748  26.8878  27.1577
    27.5210  28.1509  28.5325  28.8932  28.9509  29.3931  29.5880  29.6990
    29.8978  30.2320  30.7191  30.7982  31.1520  31.3564  31.7202  31.8115
    32.0647  32.2667  32.2890  32.7833  32.8324  33.2852  33.5894  33.8002
    34.1624  34.5620  34.7639  34.9514  35.3868  35.4174  35.5404  35.8762
    36.3560  36.7481  37.2635  37.5326  37.5433  37.8707  38.1868  38.1883
    38.8581  38.9566  39.6291  39.8531  40.0319  40.4214  40.7747  40.8283
    41.1664  41.5307  41.7909  41.9799  42.1880  42.4275  42.5943  42.6912
    42.7808  43.0166  43.1001  43.7511  43.9377  44.1428  44.3333  44.5690
    44.6879  44.7528  44.8857  45.1576  45.2853  45.6908  45.8020  45.8838
    45.9400  46.2693  46.5415  46.7862  47.0933  47.1653  47.4508  47.4842
    47.5702  47.6760  47.8465  48.4009  48.5188  48.5728  48.8663  48.9392
    49.1274  49.3183  49.8777  49.9148  50.1071  50.4717  50.5183  50.7636
    50.9232  51.2983  51.3590  51.6746  51.9993  52.0117  52.1832  52.4373
    52.6027  52.7656  53.0144  53.1501  53.4632  53.5275  53.6455  53.7309
    54.1744  54.2515  54.3648  54.7497  54.8072  54.8746  55.2171  55.3097

          k = 0.4000 0.4618 0.0000 ( 14748 PWs)   bands (ev):

   -66.6320 -41.0041 -40.8144 -40.7930 -17.9922 -17.9211 -11.3460 -11.3151
    -9.9626  -9.1228  -8.7156  -7.9181  -6.2085  -3.7899  -2.6205  -2.5934
    -1.2199   0.7519   2.8563   3.3505   3.8344   4.1200   4.9977   5.1795
     5.7558   6.3317   6.3623   7.0686   7.5661   7.7774   8.5496   8.6454
     9.1909   9.2809   9.5985  10.1763  10.6658  11.4035  11.7024  12.4071
    12.4808  13.1082  13.2531  13.4252  14.1982  14.8648  15.8993  16.3258
    16.4927  16.8435  16.9787  17.6926  17.7786  18.4078  18.8196  19.4988
    19.8517  20.1761  20.8633  21.2043  21.3260  21.3790  21.8303  21.8997
    22.1695  22.2577  22.9616  23.5540  23.7415  24.1018  24.1981  24.5928
    24.9813  25.0742  25.4521  25.6619  26.2184  26.8422  26.9110  27.1840
    27.4511  28.1077  28.4283  28.8562  28.9560  29.3702  29.7014  29.8469
    29.9944  30.3666  30.7520  30.9369  31.2103  31.4190  31.8242  31.8652
    32.0299  32.1902  32.2679  32.7343  32.8448  33.3161  33.6946  33.8214
    34.2219  34.5811  34.7644  34.9189  35.3884  35.4410  35.6637  35.8440
    36.4586  36.7327  37.3610  37.5807  37.5918  37.6530  38.0902  38.2159
    38.8589  38.8869  39.7599  39.7780  40.1175  40.4706  40.8274  40.8828
    40.9609  41.4727  41.6147  42.0850  42.2206  42.3030  42.5813  42.6440
    42.6453  43.0600  43.0709  43.6642  43.8446  43.9722  44.2139  44.4519
    44.5562  44.7689  45.0369  45.1721  45.2709  45.5720  45.7027  45.8605
    45.9494  46.3048  46.4681  46.7210  46.9985  47.0738  47.4070  47.4667
    47.4996  47.6122  47.8814  48.2990  48.5090  48.5374  48.7563  48.8936
    49.1402  49.4403  49.8790  49.9024  50.0393  50.4123  50.4747  50.5785
    50.9176  51.2590  51.3030  51.8727  51.9507  52.0169  52.0937  52.4034
    52.6514  52.8271  52.9326  53.2719  53.5068  53.5187  53.7190  53.8370
    54.1741  54.3332  54.4282  54.9520  55.0032  55.0365  55.2188  55.3829

          k = 0.4041 0.4546 0.0000 ( 14732 PWs)   bands (ev):

   -66.6323 -41.0079 -40.8080 -40.7935 -18.0035 -17.9280 -11.3894 -11.2895
    -9.9703  -9.1355  -8.6215  -7.9055  -6.2247  -3.7609  -2.6547  -2.5503
    -1.2642   0.7146   2.9571   3.3278   3.7626   3.9885   4.9668   5.0792
     5.7168   6.2993   6.3275   7.0985   7.5709   7.8114   8.6045   8.6294
     9.2209   9.3163   9.7664  10.2265  10.7699  11.4248  11.7890  12.3964
    12.4976  13.1442  13.3051  13.4436  14.3114  14.8644  15.8342  16.2360
    16.5783  16.9338  16.9563  17.6238  17.6710  18.3433  18.7614  19.5596
    19.8797  20.0867  20.8189  21.1416  21.2885  21.3933  21.8015  21.8130
    22.1671  22.1794  22.9664  23.4232  23.7096  24.1246  24.2297  24.4057
    24.8911  25.2380  25.3964  25.7134  26.1966  26.8496  26.8990  27.2566
    27.4360  27.9610  28.4370  28.7269  28.9431  29.4478  29.8026  29.9907
    30.1188  30.4709  30.8312  31.0643  31.2756  31.4627  31.8492  31.9371
    31.9850  32.0394  32.2607  32.7206  32.9689  33.3303  33.7832  33.8549
    34.2571  34.6164  34.6164  35.0358  35.3761  35.4991  35.7819  35.8409
    36.5700  36.6629  37.4001  37.4773  37.6570  37.6648  37.9864  38.2485
    38.7920  38.8720  39.7175  39.8742  40.2197  40.4252  40.7584  40.9247
    40.9481  41.4018  41.4412  41.9246  42.2446  42.3032  42.5402  42.6053
    42.6257  43.0847  43.0850  43.6003  43.7711  43.8061  44.1154  44.3601
    44.4274  44.7514  45.1121  45.1971  45.3019  45.4760  45.5500  45.8364
    46.0027  46.3126  46.4644  46.6230  46.9396  46.9759  47.2879  47.3632
    47.4854  47.6034  47.9541  48.2583  48.4238  48.5014  48.6550  48.8270
    49.1975  49.5586  49.8250  49.8809  50.0456  50.3539  50.3622  50.4995
    50.9194  51.1554  51.3090  51.8995  51.9233  51.9251  52.0272  52.2698
    52.8132  52.8807  52.9300  53.3553  53.5535  53.5595  53.7305  53.8978
    54.2336  54.3485  54.5277  55.0759  55.1190  55.1876  55.2549  55.4328

          k = 0.4083 0.4474 0.0000 ( 14720 PWs)   bands (ev):

   -66.6325 -41.0116 -40.8016 -40.7939 -18.0148 -17.9349 -11.4314 -11.2637
    -9.9789  -9.1471  -8.5260  -7.8943  -6.2402  -3.7332  -2.6886  -2.5045
    -1.3095   0.6782   3.0545   3.3049   3.6924   3.8583   4.9368   4.9833
     5.6786   6.2650   6.2936   7.1220   7.5747   7.8582   8.5640   8.6851
     9.2759   9.3517   9.9410  10.2612  10.8938  11.4141  11.8892  12.4029
    12.4998  13.1340  13.4240  13.4587  14.4124  14.8773  15.7537  16.1540
    16.5967  16.9646  17.0643  17.5607  17.5700  18.2857  18.7049  19.6170
    19.8925  19.9903  20.7681  21.0243  21.2467  21.4245  21.6281  21.7764
    22.1417  22.2729  22.9809  23.2868  23.6398  24.1356  24.2628  24.2700
    24.7762  25.3445  25.4086  25.8026  26.1648  26.7335  26.9431  27.3122
    27.5063  27.7711  28.5049  28.5612  28.9202  29.5742  29.8782  30.1303
    30.2555  30.5553  30.9483  31.1710  31.3516  31.4990  31.7493  31.8466
    31.9607  32.0782  32.2357  32.8028  33.1116  33.3308  33.7826  33.9636
    34.2703  34.4755  34.6729  35.1479  35.3818  35.5424  35.8700  35.8964
    36.5905  36.6571  37.2047  37.5518  37.6875  37.7897  37.8857  38.2845
    38.6849  38.8820  39.6905  39.9395  40.2560  40.4033  40.6383  40.8480
    41.0897  41.1893  41.4806  41.6978  42.1462  42.2935  42.5030  42.5908
    42.6833  43.0902  43.1004  43.4888  43.7398  43.7501  44.0356  44.2963
    44.3146  44.6925  45.0094  45.2888  45.3593  45.3691  45.4839  45.8316
    46.0171  46.2894  46.4812  46.5744  46.8705  46.8954  47.0779  47.3206
    47.5262  47.6017  47.9301  48.2745  48.3324  48.4072  48.6418  48.7473
    49.2654  49.6193  49.7997  49.8536  50.0762  50.1985  50.3222  50.4826
    50.9335  51.0647  51.3144  51.7373  51.8532  51.8539  51.8778  52.3423
    52.7410  53.0026  53.0172  53.4256  53.5881  53.6202  53.7474  53.8980
    54.3501  54.3987  54.5348  55.0648  55.1525  55.3140  55.4030  55.5021

          k = 0.4125 0.4402 0.0000 ( 14724 PWs)   bands (ev):

   -66.6327 -41.0151 -40.7954 -40.7943 -18.0261 -17.9418 -11.4720 -11.2378
    -9.9880  -9.1575  -8.4298  -7.8843  -6.2550  -3.7069  -2.7220  -2.4563
    -1.3554   0.6428   3.1444   3.2812   3.6275   3.7303   4.8930   4.9077
     5.6415   6.2301   6.2602   7.1380   7.5770   7.9171   8.5239   8.7171
     9.3563   9.3895  10.1193  10.2858  11.0306  11.3895  11.9688  12.4431
    12.4947  13.1135  13.4695  13.5664  14.4878  14.9162  15.6672  16.0814
    16.5329  17.0765  17.1592  17.4769  17.5080  18.2377  18.6502  19.6652
    19.8901  19.8941  20.7090  20.8735  21.1955  21.4389  21.4514  21.7586
    22.1395  22.4034  22.9963  23.1479  23.5221  24.1175  24.2219  24.2949
    24.6611  25.2943  25.5792  25.9068  26.1270  26.5951  26.9710  27.3413
    27.5797  27.6353  28.3911  28.5968  28.8935  29.7200  29.9241  30.2635
    30.3907  30.6404  31.0737  31.2528  31.4341  31.5370  31.6173  31.6702
    31.9135  32.2037  32.2507  32.9352  33.2049  33.3703  33.7513  34.0887
    34.2438  34.3767  34.7491  35.2287  35.4048  35.5881  35.8912  36.0093
    36.5667  36.6573  37.0881  37.5837  37.6941  37.7938  37.9620  38.3109
    38.5931  38.8753  39.6860  39.9490  40.1426  40.4355  40.6754  40.7053
    40.9521  41.2327  41.5137  41.5249  41.9963  42.2995  42.4245  42.5041
    42.8116  43.0319  43.1209  43.3425  43.7746  43.8038  43.9355  44.2548
    44.2580  44.6125  44.8850  45.1586  45.3020  45.4444  45.5857  45.8459
    45.9416  46.2720  46.4764  46.6120  46.7371  46.8566  46.9243  47.2818
    47.5715  47.5914  47.8727  48.0733  48.3178  48.4419  48.6630  48.6771
    49.3217  49.5609  49.8407  49.8507  50.0934  50.0964  50.2906  50.4594
    50.9603  50.9955  51.2985  51.5759  51.6469  51.8000  51.8112  52.3793
    52.7240  53.0058  53.0759  53.5525  53.5864  53.6045  53.8504  53.8986
    54.4612  54.4677  54.4905  54.9891  55.2008  55.4124  55.5438  55.6360

          k = 0.4166 0.4330 0.0000 ( 14724 PWs)   bands (ev):

   -66.6329 -41.0185 -40.7947 -40.7893 -18.0374 -17.9487 -11.5112 -11.2119
    -9.9976  -9.1666  -8.3331  -7.8758  -6.2690  -3.6822  -2.7547  -2.4059
    -1.4017   0.6084   3.2169   3.2556   3.5771   3.6062   4.8096   4.8797
     5.6055   6.1954   6.2274   7.1470   7.5778   7.9863   8.4844   8.7309
     9.4305   9.4570  10.2997  10.3043  11.1750  11.3591  12.0082  12.4867
    12.5297  13.0923  13.4756  13.7178  14.5263  14.9911  15.5793  16.0195
    16.4310  17.2215  17.2247  17.3927  17.4771  18.2032  18.5977  19.6755
    19.8276  19.8723  20.6372  20.7042  21.1104  21.2940  21.4659  21.7496
    22.1585  22.5370  23.0025  23.0143  23.3747  24.0938  24.2342  24.3218
    24.5583  25.2461  25.7336  26.0116  26.0931  26.4553  26.9719  27.3674
    27.4134  27.7697  28.2398  28.6962  28.8721  29.8719  29.9457  30.3840
    30.5094  30.7315  31.1697  31.3139  31.4526  31.4756  31.5452  31.6303
    31.8555  32.3142  32.3238  33.0887  33.1842  33.5125  33.7106  34.1464
    34.2125  34.3587  34.8402  35.2591  35.4444  35.6701  35.8261  36.1557
    36.5395  36.6182  37.0638  37.5882  37.7032  37.7167  38.1448  38.2958
    38.5600  38.8446  39.6676  39.9463  39.9813  40.4301  40.5345  40.7970
    40.8002  41.1781  41.4529  41.5200  41.9666  42.2475  42.3297  42.4049
    42.9121  42.9512  43.0193  43.3463  43.7900  43.8468  43.8749  44.2385
    44.2715  44.5375  44.7699  44.9657  45.2937  45.5071  45.6350  45.8645
    45.8686  46.2692  46.4283  46.5828  46.7083  46.8219  46.8487  47.2480
    47.5523  47.5920  47.8424  47.8734  48.2357  48.4650  48.6896  48.6960
    49.3549  49.4646  49.8061  49.8753  50.0947  50.1202  50.2598  50.4225
    50.9443  50.9945  51.2010  51.4586  51.5083  51.7197  51.7738  52.3266
    52.7579  52.9233  53.1429  53.4856  53.6025  53.7539  53.7831  54.0695
    54.3986  54.5331  54.5482  54.9526  55.2626  55.4721  55.6306  55.8331

          k = 0.4208 0.4258 0.0000 ( 14710 PWs)   bands (ev):

   -66.6331 -41.0218 -40.7952 -40.7833 -18.0484 -17.9556 -11.5489 -11.1863
   -10.0074  -9.1745  -8.2363  -7.8686  -6.2825  -3.6593  -2.7863  -2.3534
    -1.4479   0.5750   3.2247   3.2516   3.4896   3.5608   4.7344   4.8527
     5.5709   6.1614   6.1951   7.1502   7.5769   8.0632   8.4453   8.7336
     9.4749   9.5713  10.3192  10.4804  11.3229  11.3269  12.0118  12.4788
    12.6555  13.0728  13.4768  13.8721  14.5303  15.0982  15.4931  15.9693
    16.3125  17.2403  17.3133  17.3796  17.4815  18.1880  18.5479  19.6038
    19.8348  19.8376  20.5292  20.5455  20.9795  21.2209  21.4671  21.7484
    22.1740  22.6533  22.9040  22.9778  23.2522  24.0874  24.2675  24.3311
    24.4821  25.2003  25.8158  26.1024  26.1053  26.3376  26.9217  27.3095
    27.3942  27.8364  28.1719  28.7611  28.8947  29.9357  30.0394  30.4790
    30.5903  30.8139  31.1691  31.3144  31.3842  31.4063  31.6093  31.7366
    31.8072  32.4145  32.4261  33.1359  33.2498  33.6695  33.6768  34.0333
    34.3310  34.3711  34.9397  35.2539  35.4992  35.7040  35.7769  36.3186
    36.3840  36.7214  37.0355  37.5608  37.6661  37.7429  38.2394  38.3198
    38.5925  38.7984  39.5638  39.8735  39.9602  40.2938  40.3930  40.6983
    40.9286  41.0973  41.2753  41.6190  42.0406  42.1175  42.2179  42.3532
    42.8039  42.8581  43.0534  43.4288  43.6309  43.9090  43.9322  44.2125
    44.3389  44.5060  44.6738  44.7959  45.2895  45.5283  45.5486  45.8445
    45.8964  46.3012  46.3584  46.4637  46.7630  46.8140  46.8556  47.2217
    47.4821  47.4942  47.7733  47.8347  48.1639  48.4150  48.7075  48.7859
    49.3674  49.3765  49.7178  49.9128  50.0946  50.2061  50.2232  50.3767
    50.8819  51.0237  51.0541  51.3312  51.5164  51.6383  51.7392  52.2403
    52.7777  52.8299  53.1950  53.4155  53.5783  53.7326  53.9159  54.1740
    54.3206  54.5662  54.5938  54.9972  55.3494  55.4928  55.6932  55.9427

          k = 0.4250 0.4186 0.0000 ( 14702 PWs)   bands (ev):

   -66.6333 -41.0250 -40.7956 -40.7775 -18.0593 -17.9623 -11.5850 -11.1611
   -10.0174  -9.1811  -8.1397  -7.8627  -6.2956  -3.6384  -2.8168  -2.2991
    -1.4938   0.5427   3.1812   3.2339   3.3884   3.5923   4.6690   4.8268
     5.5377   6.1285   6.1635   7.1489   7.5743   8.1450   8.4067   8.7312
     9.5227   9.6940  10.3320  10.6588  11.2969  11.4708  11.9941  12.4731
    12.8044  13.0562  13.4738  14.0248  14.5102  15.2261  15.4119  15.9310
    16.1854  17.2150  17.2461  17.5047  17.5336  18.1984  18.5019  19.4953
    19.7825  19.8676  20.3612  20.4282  20.8535  21.1814  21.4576  21.7527
    22.1500  22.6839  22.8474  22.9326  23.2232  24.0909  24.2967  24.3167
    24.4575  25.1577  25.7688  26.1379  26.1726  26.3186  26.8198  27.2861
    27.4190  27.7623  28.2609  28.7534  28.9964  29.9238  30.1954  30.5128
    30.6223  30.8305  31.0925  31.2675  31.3979  31.4665  31.6733  31.7798
    31.8838  32.4937  32.5425  33.1082  33.4058  33.6400  33.7826  33.9809
    34.3871  34.4419  35.0365  35.2376  35.5369  35.5964  35.8569  36.2714
    36.4883  36.8422  36.9527  37.5060  37.6416  37.8216  38.1828  38.4507
    38.6535  38.7787  39.3820  39.7772  39.9535  40.1363  40.3288  40.5309
    40.9480  41.1344  41.1708  41.6734  41.9749  42.0661  42.1467  42.3072
    42.7117  42.7456  43.1103  43.4797  43.5070  43.9503  43.9770  44.1602
    44.4107  44.5356  44.6009  44.6695  45.2926  45.3914  45.5569  45.7545
    45.9122  46.3018  46.3863  46.4043  46.7303  46.8042  46.9766  47.2134
    47.2845  47.3979  47.7614  47.8025  48.1142  48.3983  48.7033  48.8452
    49.3253  49.3712  49.6307  49.9375  50.1091  50.1836  50.2596  50.3380
    50.7810  50.9016  51.0812  51.2892  51.5378  51.5606  51.6980  52.1515
    52.7554  52.7590  53.2236  53.3522  53.5245  53.7313  54.0391  54.1527
    54.2469  54.6028  54.6687  55.0818  55.4621  55.4784  55.7324  55.9939

          k = 0.4292 0.4113 0.0000 ( 14698 PWs)   bands (ev):

   -66.6335 -41.0280 -40.7960 -40.7719 -18.0698 -17.9689 -11.6195 -11.1365
   -10.0274  -9.1864  -8.0437  -7.8582  -6.3083  -3.6195  -2.8459  -2.2434
    -1.5390   0.5115   3.1132   3.1810   3.3146   3.6526   4.6153   4.8021
     5.5061   6.0969   6.1323   7.1442   7.5700   8.2284   8.3686   8.7286
     9.5736   9.8212  10.3441  10.8277  11.2765  11.6151  11.9655  12.4718
    12.9643  13.0439  13.4684  14.1704  14.4741  15.3395  15.3657  15.9041
    16.0543  17.1734  17.1843  17.5180  17.6818  18.2371  18.4623  19.3781
    19.7016  19.8859  20.2135  20.2997  20.7558  21.1532  21.4408  21.7596
    22.0622  22.5534  22.8652  22.9548  23.2811  24.0975  24.2308  24.3817
    24.4697  25.1181  25.6486  26.0893  26.1896  26.4535  26.7206  27.3153
    27.4316  27.6462  28.4178  28.7240  29.1236  29.9024  30.3473  30.4350
    30.6381  30.7108  31.0963  31.2804  31.4450  31.5502  31.7203  31.7940
    32.0519  32.5128  32.6894  33.1298  33.5091  33.6690  33.7137  34.0981
    34.3994  34.5442  35.0973  35.2218  35.4439  35.6659  35.8373  36.2836
    36.6469  36.8344  36.9535  37.4430  37.6320  37.9095  38.1581  38.4751
    38.7189  38.8572  39.1876  39.6216  39.7940  40.1400  40.3168  40.3576
    40.7419  41.1968  41.2793  41.6515  41.8626  41.9119  42.2019  42.2416
    42.6509  42.7260  43.0708  43.4629  43.4852  43.9697  44.0055  44.1078
    44.4402  44.5574  44.5617  44.6449  45.2256  45.3625  45.4733  45.6761
    45.9140  46.2417  46.3919  46.4644  46.7188  46.8323  47.0524  47.0668
    47.2611  47.3110  47.7185  47.7350  48.1009  48.4423  48.6691  48.8438
    49.3197  49.3754  49.5593  49.9386  50.1100  50.1676  50.2311  50.3119
    50.6694  50.8288  51.1380  51.3022  51.4917  51.5525  51.6368  52.0737
    52.6903  52.7323  53.2286  53.2961  53.4636  53.7625  53.9715  54.1795
    54.2239  54.5811  54.7873  55.1740  55.4377  55.5803  55.7409  56.0389

          k = 0.4333 0.4041 0.0000 ( 14702 PWs)   bands (ev):

   -66.6338 -41.0308 -40.7964 -40.7665 -18.0801 -17.9753 -11.6523 -11.1126
   -10.0373  -9.1904  -7.9485  -7.8549  -6.3210  -3.6029  -2.8733  -2.1867
    -1.5832   0.4814   3.0201   3.1132   3.2693   3.7194   4.5756   4.7785
     5.4761   6.0669   6.1018   7.1372   7.5642   8.3089   8.3308   8.7306
     9.6273   9.9495  10.3568  10.9653  11.2880  11.7509  11.9313  12.4771
    13.0375  13.1249  13.4663  14.3012  14.4266  15.2820  15.5121  15.8869
    15.9235  17.1275  17.1286  17.5117  17.8129  18.3008  18.4341  19.2584
    19.5924  19.8484  20.0956  20.2090  20.6815  21.1305  21.4191  21.7643
    21.9248  22.3585  22.9439  22.9826  23.3938  24.1051  24.1581  24.4605
    24.4905  25.0815  25.4986  26.0310  26.1359  26.6220  26.6701  27.3747
    27.3989  27.5756  28.5906  28.6906  29.2552  29.8756  30.2845  30.4776
    30.5398  30.6323  31.1264  31.3308  31.5128  31.6214  31.7762  31.8578
    32.2235  32.5001  32.8464  33.2000  33.5193  33.5956  33.7960  34.2367
    34.4204  34.6379  35.0521  35.2071  35.4468  35.7566  35.7638  36.3878
    36.6268  36.8686  37.0275  37.3778  37.6496  37.9512  38.2020  38.4336
    38.7595  38.9903  39.0327  39.4253  39.5942  40.0898  40.2090  40.4202
    40.5160  41.1863  41.4182  41.6071  41.7354  41.7726  42.1835  42.2187
    42.5758  42.7751  43.0215  43.3907  43.5278  43.9669  44.0066  44.0577
    44.4064  44.5482  44.5923  44.7057  45.1288  45.3058  45.4013  45.6346
    45.9482  46.2119  46.3584  46.4291  46.7523  46.9003  46.9119  47.0833
    47.2251  47.3717  47.5977  47.6787  48.1204  48.5134  48.6085  48.8176
    49.3155  49.3783  49.5144  49.9243  50.0573  50.1766  50.1907  50.2432
    50.5912  50.8295  51.2112  51.3260  51.4375  51.5167  51.5942  52.0169
    52.5933  52.7532  53.2127  53.2478  53.4236  53.7906  53.8267  54.1166
    54.3356  54.5507  54.8499  55.2461  55.4057  55.5970  55.7678  55.9691

          k = 0.4375 0.3969 0.0000 ( 14702 PWs)   bands (ev):

   -66.6339 -41.0335 -40.7968 -40.7614 -18.0900 -17.9815 -11.6834 -11.0895
   -10.0470  -9.1932  -7.8545  -7.8527  -6.3337  -3.5885  -2.8989  -2.1293
    -1.6258   0.4525   2.9144   3.0399   3.2403   3.7807   4.5529   4.7562
     5.4479   6.0385   6.0719   7.1287   7.5571   8.2936   8.3804   8.7435
     9.6832  10.0745  10.3736  11.0300  11.3729  11.8722  11.8950  12.4915
    13.0401  13.2631  13.4883  14.3709  14.4058  15.2470  15.6617  15.7988
    15.8771  17.0782  17.0817  17.4890  17.9099  18.3810  18.4274  19.1382
    19.4642  19.7278  20.0072  20.1951  20.6214  21.1109  21.3941  21.7183
    21.8094  22.1495  22.9948  23.0583  23.5335  24.0839  24.1147  24.5108
    24.5476  25.0467  25.3397  25.9782  26.0287  26.6642  26.7781  27.3245
    27.4546  27.5725  28.6568  28.7659  29.3829  29.8438  30.1068  30.3376
    30.6006  30.6022  31.1518  31.3906  31.5956  31.6464  31.8975  31.9444
    32.3513  32.5268  33.0020  33.2846  33.4871  33.5172  33.9393  34.2816
    34.5092  34.7213  34.9376  35.1885  35.5357  35.6984  35.8727  36.4068
    36.5754  37.0253  37.0422  37.3082  37.7146  37.9472  38.2802  38.3865
    38.7244  38.9950  39.0576  39.2177  39.4754  39.8611  40.2298  40.2763
    40.5524  41.0954  41.4843  41.5437  41.5677  41.7911  42.1422  42.2049
    42.4305  42.8334  43.0586  43.3109  43.5639  43.9469  43.9669  44.0241
    44.3282  44.5640  44.6593  44.7648  45.0599  45.1534  45.4291  45.5677
    46.0392  46.2299  46.2882  46.2948  46.6663  46.9107  47.0257  47.1376
    47.1432  47.4653  47.4839  47.6152  48.1539  48.5395  48.5397  48.8458
    49.2722  49.3679  49.4884  49.8939  49.9952  50.1226  50.1647  50.2092
    50.5602  50.8575  51.2737  51.3302  51.4055  51.4263  51.6158  51.9887
    52.4792  52.8023  53.1800  53.2097  53.4184  53.6854  53.7861  54.0550
    54.4311  54.5395  54.8321  55.2345  55.4465  55.4548  55.8452  55.9248

          k = 0.4417 0.3897 0.0000 ( 14684 PWs)   bands (ev):

   -66.6341 -41.0361 -40.7971 -40.7565 -18.0994 -17.9874 -11.7126 -11.0674
   -10.0565  -9.1948  -7.8517  -7.7620  -6.3467  -3.5765  -2.9225  -2.0720
    -1.6663   0.4248   2.8052   2.9651   3.2192   3.8295   4.5501   4.7351
     5.4214   6.0117   6.0425   7.1192   7.5487   8.2569   8.4353   8.7745
     9.7406  10.1863  10.4034  11.0308  11.5207  11.8598  11.9723  12.5162
    13.0567  13.3266  13.5859  14.3094  14.4709  15.2376  15.6922  15.8075
    15.8762  17.0327  17.0377  17.4560  17.9530  18.4511  18.4691  19.0178
    19.3370  19.5630  19.9399  20.2281  20.5695  21.0925  21.3641  21.5531
    21.8023  21.9399  22.9971  23.1919  23.6798  24.0075  24.1308  24.5275
    24.6293  25.0122  25.1915  25.9050  25.9294  26.6763  26.8695  27.3023
    27.5480  27.5923  28.6246  28.9359  29.4932  29.8015  29.9302  30.1614
    30.5519  30.6605  31.1912  31.4443  31.6571  31.6815  32.0439  32.0554
    32.3780  32.6723  33.1367  33.2653  33.4967  33.5419  34.0599  34.2455
    34.6271  34.7585  34.8718  35.1759  35.6455  35.6930  35.9892  36.2354
    36.7039  37.0020  37.1746  37.2357  37.8221  37.9374  38.2824  38.3506
    38.7211  38.9472  38.9475  39.1057  39.5429  39.6349  39.9776  40.3095
    40.6345  40.9995  41.2965  41.3923  41.6827  41.8783  42.1014  42.1796
    42.2433  42.8467  43.1546  43.2791  43.5588  43.8787  43.9212  44.0381
    44.2353  44.5902  44.6377  44.8277  45.0219  45.1169  45.4437  45.4705
    46.0421  46.1725  46.2276  46.3293  46.5619  46.9158  47.0446  47.1569
    47.2491  47.3515  47.5140  47.6166  48.1853  48.4923  48.4956  48.9531
    49.1997  49.3284  49.4474  49.8360  49.9649  50.0622  50.1274  50.2175
    50.5596  50.8790  51.1853  51.2940  51.4078  51.4788  51.6595  51.9885
    52.3632  52.8456  53.1456  53.1835  53.4429  53.5759  53.7329  53.9971
    54.5009  54.5619  54.7417  55.1874  55.2438  55.5347  55.8639  55.8976

          k = 0.4458 0.3825 0.0000 ( 14678 PWs)   bands (ev):

   -66.6343 -41.0385 -40.7975 -40.7519 -18.1085 -17.9930 -11.7401 -11.0464
   -10.0657  -9.1954  -7.8516  -7.6713  -6.3602  -3.5668  -2.9440  -2.0159
    -1.7039   0.3984   2.6966   2.8909   3.2021   3.8624   4.5687   4.7154
     5.3968   5.9868   6.0136   7.1092   7.5393   8.2208   8.4690   8.8277
     9.7988  10.2639  10.4664  11.0081  11.6795  11.8385  12.0465  12.5480
    13.0940  13.3289  13.7452  14.2445  14.4902  15.2338  15.6317  15.8534
    15.9741  16.9915  16.9965  17.4189  17.9370  18.4922  18.5578  18.8959
    19.2370  19.3899  19.8860  20.2796  20.5227  21.0722  21.3040  21.3984
    21.7378  21.8088  22.9939  23.3348  23.8146  23.9272  24.1644  24.5396
    24.6655  24.9759  25.0961  25.7899  25.8834  26.6920  26.8493  27.3938
    27.6192  27.6465  28.5961  29.0905  29.5351  29.7298  29.8103  30.0275
    30.4967  30.6511  31.2621  31.4842  31.6734  31.7615  32.1516  32.2276
    32.3932  32.8580  33.1453  33.2217  33.6167  33.6217  34.1274  34.1776
    34.6909  34.7171  34.9388  35.2087  35.7307  35.7502  36.0558  36.1095
    36.8401  36.9300  37.1663  37.2915  37.9393  37.9431  38.1995  38.3296
    38.7169  38.7637  38.8536  39.1721  39.4146  39.6935  39.7252  40.2795
    40.6595  40.9419  41.1115  41.2827  41.7772  41.9605  42.0455  42.0475
    42.1713  42.8183  43.2651  43.3004  43.5065  43.7859  43.8881  44.0663
    44.1580  44.5068  44.6083  44.8818  45.0188  45.2195  45.3614  45.4586
    45.8300  46.0530  46.3831  46.4394  46.4718  46.8948  46.9560  47.1567
    47.3189  47.3719  47.5341  47.6459  48.2096  48.4250  48.4999  49.0620
    49.1397  49.2527  49.3870  49.7714  49.9664  49.9987  50.1320  50.2162
    50.5707  50.8798  51.0307  51.2220  51.4403  51.5979  51.7257  52.0006
    52.2626  52.8533  53.1224  53.1582  53.4866  53.5322  53.6386  53.9477
    54.5340  54.6071  54.6097  55.0275  55.1392  55.5993  55.6780  55.8081

          k = 0.4500 0.3753 0.0000 ( 14686 PWs)   bands (ev):

   -66.6345 -41.0407 -40.7978 -40.7475 -18.1170 -17.9984 -11.7656 -11.0267
   -10.0745  -9.1950  -7.8524  -7.5826  -6.3744  -3.5593  -2.9633  -1.9628
    -1.7367   0.3734   2.5906   2.8188   3.1876   3.8794   4.6072   4.6970
     5.3741   5.9636   5.9852   7.0991   7.5291   8.1856   8.4845   8.8996
     9.8569  10.3001  10.5692  10.9791  11.7404  11.9241  12.0957  12.5785
    13.1588  13.3126  13.9234  14.1783  14.4710  15.1926  15.6548  15.8420
    16.1214  16.9544  16.9587  17.3834  17.8736  18.5152  18.6395  18.7711
    19.1915  19.2261  19.8408  20.3383  20.4796  21.0427  21.1470  21.3409
    21.5543  21.8159  22.9875  23.4779  23.8429  23.9137  24.2357  24.5468
    24.5975  24.9363  25.1132  25.6968  25.8394  26.7074  26.7698  27.5342
    27.6650  27.7400  28.5750  29.2076  29.4282  29.6142  29.8272  29.9727
    30.4457  30.5856  31.3536  31.5088  31.7007  31.8332  32.2612  32.4051
    32.4314  32.9877  33.0751  33.2528  33.7571  33.7581  34.0922  34.1247
    34.6817  34.7218  35.0441  35.2975  35.7580  35.8332  35.9356  36.2287
    36.8516  36.9614  37.1061  37.3443  37.9572  38.0257  38.1407  38.3354
    38.5007  38.5952  39.0022  39.2044  39.2593  39.4799  39.8369  40.2044
    40.5861  40.8225  41.0536  41.2461  41.7765  41.9242  41.9466  42.0294
    42.1944  42.8030  43.3219  43.3264  43.4704  43.7007  43.8247  44.0761
    44.1197  44.3829  44.6090  44.9086  45.0493  45.2550  45.3892  45.4444
    45.6536  45.9200  46.3598  46.5609  46.5663  46.8534  46.8709  47.0782
    47.3013  47.4932  47.5820  47.6796  48.2372  48.3494  48.5675  48.9981
    49.1526  49.2355  49.3368  49.7142  49.9393  49.9798  50.1567  50.2119
    50.5830  50.8201  50.9142  51.1247  51.4959  51.7055  51.8233  51.9956
    52.2024  52.8266  53.1122  53.1177  53.4987  53.5629  53.5730  53.9041
    54.4373  54.5406  54.6627  54.8138  55.0848  55.4801  55.6584  55.6981

          k = 0.4542 0.3680 0.0000 ( 14682 PWs)   bands (ev):

   -66.6346 -41.0427 -40.7981 -40.7435 -18.1249 -18.0034 -11.7893 -11.0082
   -10.0828  -9.1937  -7.8539  -7.4964  -6.3897  -3.5540  -2.9804  -1.9178
    -1.7603   0.3497   2.4885   2.7497   3.1749   3.8833   4.6615   4.6799
     5.3535   5.9423   5.9572   7.0892   7.5181   8.1513   8.4884   8.9830
     9.9138  10.3144  10.6912  10.9498  11.7145  12.1003  12.1255  12.5989
    13.2529  13.2904  14.0919  14.1290  14.4261  15.1110  15.7534  15.8188
    16.2655  16.9209  16.9247  17.3549  17.7738  18.4991  18.6209  18.7265
    19.0846  19.2102  19.8015  20.3895  20.4485  20.9703  20.9872  21.3122
    21.4106  21.8224  22.9792  23.5954  23.7720  23.9656  24.3514  24.4556
    24.5507  24.8945  25.2150  25.6314  25.7973  26.6788  26.7222  27.6096
    27.7950  27.8157  28.5663  29.2321  29.2625  29.5120  29.8885  29.9925
    30.4100  30.4891  31.4420  31.5216  31.7376  31.9011  32.3662  32.4896
    32.5796  32.8686  33.2558  33.2608  33.8988  33.9116  34.0036  34.0913
    34.6345  34.7693  35.1713  35.3617  35.7142  35.8775  35.9779  36.3400
    36.7884  37.0577  37.0631  37.3093  37.9905  37.9912  38.1667  38.2795
    38.3927  38.4914  39.0155  39.1419  39.2550  39.3691  39.8713  40.1921
    40.4375  40.6399  41.1065  41.2117  41.7031  41.8291  41.8819  42.0602
    42.2687  42.8222  43.2374  43.3206  43.5479  43.6278  43.7287  44.0164
    44.1121  44.3539  44.5989  44.8895  45.1018  45.2037  45.2859  45.5628
    45.6582  45.7893  46.2543  46.6653  46.6850  46.7396  46.8669  47.0265
    47.2854  47.5181  47.6087  47.7913  48.2745  48.2754  48.6696  48.9196
    49.0566  49.2287  49.4052  49.6609  49.8855  49.9852  50.1896  50.2214
    50.5902  50.6838  50.8729  51.0108  51.5666  51.7753  51.9506  51.9588
    52.1925  52.7926  53.0729  53.1013  53.4119  53.6206  53.6332  53.8602
    54.2819  54.4938  54.5966  54.7185  55.0106  55.3508  55.5652  55.6908

          k = 0.4583 0.3608 0.0000 ( 14694 PWs)   bands (ev):

   -66.6348 -41.0446 -40.7984 -40.7397 -18.1323 -18.0081 -11.8110 -10.9912
   -10.0905  -9.1917  -7.8560  -7.4128  -6.4062  -3.5507  -2.9952  -1.8922
    -1.7634   0.3276   2.3912   2.6845   3.1638   3.8782   4.6643   4.7267
     5.3350   5.9228   5.9294   7.0796   7.5067   8.1183   8.4860   9.0718
     9.9684  10.3197  10.8192  10.9232  11.6782  12.1422  12.2881  12.6063
    13.2662  13.3713  14.0446  14.3006  14.3661  15.0160  15.7815  15.8919
    16.4005  16.8910  16.8947  17.3395  17.6449  18.4554  18.4736  18.7783
    18.9789  19.2703  19.7655  20.3700  20.4850  20.8081  20.8877  21.2884
    21.3316  21.8277  22.9696  23.5745  23.8184  23.9871  24.2773  24.5044
    24.5549  24.8550  25.3518  25.5932  25.7580  26.5920  26.7372  27.6309
    27.8590  27.9800  28.5744  29.0986  29.1227  29.4790  29.9334  30.0628
    30.3897  30.4001  31.5082  31.5272  31.7807  31.9692  32.4592  32.5476
    32.7372  32.7642  33.2576  33.4594  33.8800  33.9858  34.0696  34.1515
    34.5807  34.8276  35.2880  35.3149  35.7743  35.8735  36.0849  36.4352
    36.7470  37.0512  37.1222  37.2102  37.8526  38.0129  38.0952  38.2674
    38.4201  38.4774  38.8885  38.9702  39.3814  39.4520  39.7651  40.2353
    40.2593  40.5260  41.0930  41.1620  41.7062  41.7152  41.8268  42.0755
    42.3711  42.8562  43.1183  43.2723  43.5539  43.6017  43.6546  43.9441
    44.1115  44.3856  44.5838  44.8152  45.0831  45.1714  45.2119  45.6332
    45.7540  45.7792  46.1378  46.6180  46.6715  46.7625  46.8857  47.0333
    47.2821  47.4770  47.6917  47.8732  48.2118  48.3205  48.7529  48.8753
    49.0215  49.1686  49.4894  49.6075  49.8427  49.9696  50.2228  50.2564
    50.5688  50.5866  50.8352  50.8930  51.6392  51.8045  51.9220  52.0825
    52.1992  52.7793  53.0384  53.0614  53.3732  53.6366  53.7032  53.8120
    54.1576  54.4193  54.4195  54.7269  54.9218  55.2918  55.4470  55.5767

          k = 0.4625 0.3536 0.0000 ( 14680 PWs)   bands (ev):

   -66.6349 -41.0463 -40.7987 -40.7363 -18.1391 -18.0124 -11.8307 -10.9756
   -10.0977  -9.1892  -7.8585  -7.3323  -6.4241  -3.5491  -3.0079  -1.8943
    -1.7383   0.3070   2.2997   2.6238   3.1539   3.8677   4.6500   4.7980
     5.3188   5.9017   5.9052   7.0706   7.4949   8.0869   8.4806   9.1621
    10.0192  10.3201  10.9013  10.9479  11.6401  12.1509  12.4770  12.6025
    13.2421  13.5051  13.9845  14.2974  14.4897  14.9251  15.7280  16.0486
    16.5206  16.8644  16.8686  17.3432  17.4943  18.3120  18.4033  18.7878
    18.9349  19.3391  19.7272  20.3119  20.5453  20.6781  20.7591  21.2671
    21.3149  21.8317  22.9591  23.4587  23.9288  23.9926  24.0997  24.5665
    24.6587  24.8243  25.5053  25.5773  25.7232  26.5151  26.7536  27.6364
    27.8589  28.1695  28.5932  28.9607  28.9617  29.4538  29.9528  30.1145
    30.3524  30.4182  31.5275  31.5398  31.8264  32.0310  32.5321  32.5544
    32.7445  32.8509  33.2944  33.6583  33.7818  33.9832  34.2004  34.3157
    34.5441  34.8838  35.1427  35.4586  35.8371  35.8965  36.2090  36.4992
    36.7237  37.0748  37.0938  37.1546  37.6899  37.8240  38.1690  38.3738
    38.3999  38.4196  38.7618  38.8996  39.5197  39.5695  39.6274  40.0830
    40.1252  40.6107  40.9172  41.1536  41.6382  41.7356  41.8062  42.0802
    42.4798  42.8737  43.0024  43.1893  43.4673  43.4884  43.7244  43.9317
    44.1025  44.4129  44.5485  44.7205  44.9364  45.2192  45.2410  45.5875
    45.8803  45.9352  46.0140  46.5039  46.6203  46.7774  46.8830  47.0975
    47.2211  47.5542  47.7253  47.8996  48.1786  48.3658  48.7688  48.8784
    49.1018  49.1061  49.5088  49.5545  49.8198  49.9391  50.2363  50.3052
    50.5270  50.5638  50.7935  50.7951  51.6917  51.7910  51.9198  52.1912
    52.2009  52.7876  52.9997  53.0312  53.3918  53.5611  53.7063  53.8089
    54.0741  54.2844  54.3496  54.6878  54.8565  55.2795  55.3704  55.4485

          k = 0.4667 0.3464 0.0000 ( 14684 PWs)   bands (ev):

   -66.6351 -41.0479 -40.7989 -40.7332 -18.1452 -18.0162 -11.8485 -10.9616
   -10.1043  -9.1864  -7.8613  -7.2550  -6.4436  -3.5489  -3.0186  -1.9111
    -1.6985   0.2882   2.2147   2.5681   3.1452   3.8546   4.6372   4.8714
     5.3052   5.8740   5.8894   7.0622   7.4831   8.0574   8.4738   9.2510
    10.0651  10.3172  10.8858  11.0748  11.6018  12.1544  12.5906  12.6628
    13.2203  13.6442  13.9296  14.2238  14.6786  14.8484  15.6579  16.2113
    16.6190  16.8412  16.8461  17.3313  17.3697  18.1476  18.3522  18.7477
    18.9521  19.3941  19.6746  20.2266  20.5839  20.6012  20.6547  21.2479
    21.3407  21.8344  22.9475  23.3180  23.9047  24.0060  24.0224  24.5927
    24.8103  24.8107  25.5772  25.6671  25.6976  26.4510  26.7719  27.6307
    27.8141  28.3329  28.5893  28.8178  28.8830  29.4062  29.9575  30.0638
    30.4529  30.4551  31.5217  31.5291  31.8701  32.0679  32.5321  32.5783
    32.8031  32.9018  33.3984  33.6895  33.8557  34.0004  34.2714  34.4841
    34.5664  34.9379  34.9994  35.5501  35.8357  35.9918  36.3464  36.4971
    36.7422  37.0031  37.0885  37.1504  37.5730  37.6314  38.2552  38.2741
    38.3974  38.4021  38.6669  38.9878  39.5114  39.5348  39.7577  39.9470
    39.9573  40.7340  40.7737  41.0452  41.6445  41.6633  41.8914  42.0756
    42.5817  42.8505  42.9004  43.0811  43.3710  43.3956  43.7781  43.9727
    44.0728  44.4080  44.4679  44.6406  44.8879  45.1571  45.3172  45.6464
    45.8812  46.0275  46.0640  46.4152  46.5384  46.7715  46.8631  47.1407
    47.1549  47.6782  47.7227  47.8712  48.1909  48.4014  48.7819  48.9232
    49.0268  49.2426  49.4619  49.5120  49.8086  49.9042  50.2139  50.3291
    50.5324  50.5817  50.7458  50.7559  51.7085  51.7417  51.9660  52.1514
    52.2965  52.7733  52.9584  53.0824  53.4061  53.4217  53.6331  53.8695
    53.9751  54.2037  54.3239  54.6043  54.8435  55.2943  55.2951  55.3613

          k = 0.4708 0.3392 0.0000 ( 14670 PWs)   bands (ev):

   -66.6352 -41.0492 -40.7991 -40.7305 -18.1507 -18.0197 -11.8642 -10.9491
   -10.1102  -9.1833  -7.8642  -7.1814  -6.4649  -3.5498  -3.0275  -1.9315
    -1.6557   0.2712   2.1369   2.5180   3.1376   3.8407   4.6259   4.9437
     5.2949   5.8462   5.8755   7.0546   7.4714   8.0302   8.4667   9.3367
    10.1047  10.3119  10.8776  11.1978  11.5639  12.1547  12.5734  12.8396
    13.2052  13.7770  13.8821  14.1498  14.7949  14.8632  15.5748  16.3670
    16.6906  16.8216  16.8268  17.1694  17.4134  17.9952  18.3037  18.7021
    18.9815  19.4268  19.5939  20.1052  20.5241  20.5936  20.6722  21.2307
    21.3976  21.8356  22.9341  23.1629  23.7245  24.0026  24.0833  24.6286
    24.8271  24.9501  25.5876  25.6818  25.8385  26.4014  26.7925  27.6128
    27.7311  28.3777  28.5317  28.7935  28.8878  29.3356  29.9637  29.9850
    30.4988  30.6123  31.4706  31.5073  31.9040  32.0721  32.5510  32.5996
    32.8690  32.9198  33.5516  33.6184  34.0443  34.0459  34.2558  34.6325
    34.6429  34.9098  34.9955  35.5339  35.9440  36.0128  36.4304  36.4988
    36.8016  36.9609  37.0150  37.1004  37.4860  37.5716  38.0816  38.2003
    38.3896  38.4435  38.7529  39.0295  39.4453  39.4719  39.8000  39.8828
    39.9455  40.5810  40.8725  40.9565  41.5355  41.7410  41.9650  42.0573
    42.6646  42.7840  42.8170  42.9629  43.2671  43.3555  43.8102  44.0101
    44.0323  44.3670  44.3800  44.5977  44.9193  45.0553  45.3953  45.7571
    45.7822  46.0996  46.1728  46.3973  46.4362  46.7762  46.8434  47.0740
    47.1505  47.7343  47.7681  47.8081  48.2413  48.4505  48.8155  48.9120
    49.0187  49.3325  49.3843  49.5306  49.7921  49.8704  50.1769  50.2728
    50.5586  50.6600  50.7398  50.7686  51.6714  51.7065  52.0376  52.0778
    52.3640  52.7031  52.9595  53.1663  53.3000  53.3245  53.6137  53.8456
    53.9405  54.1471  54.3357  54.5152  54.8797  55.1616  55.3319  55.3687

          k = 0.4750 0.3320 0.0000 ( 14674 PWs)   bands (ev):

   -66.6353 -41.0504 -40.7993 -40.7280 -18.1555 -18.0228 -11.8778 -10.9383
   -10.1154  -9.1802  -7.8671  -7.1119  -6.4881  -3.5514  -3.0347  -1.9513
    -1.6145   0.2562   2.0674   2.4739   3.1311   3.8273   4.6160   5.0117
     5.2886   5.8183   5.8634   7.0479   7.4602   8.0057   8.4599   9.4172
    10.1373  10.3045  10.8773  11.3152  11.5269  12.1528  12.5531  12.9893
    13.2123  13.8451  13.8829  14.0871  14.7741  15.0322  15.4913  16.4870
    16.7329  16.8066  16.8116  17.0384  17.4446  17.8877  18.2559  18.6646
    19.0056  19.4396  19.4840  19.9539  20.4660  20.6520  20.7106  21.2157
    21.4808  21.8352  22.9171  22.9984  23.5458  24.0006  24.1133  24.6529
    24.8919  25.0656  25.6042  25.6896  26.0097  26.3693  26.8151  27.5803
    27.6202  28.2650  28.4508  28.9310  28.9326  29.2479  29.9179  29.9839
    30.5420  30.7858  31.3658  31.4800  31.9193  32.0621  32.6041  32.6144
    32.9097  32.9342  33.5860  33.7206  34.1084  34.1663  34.2511  34.6499
    34.7433  34.9676  35.0594  35.4917  35.9553  36.0971  36.3381  36.6480
    36.8341  36.9079  36.9309  37.0266  37.4240  37.6491  37.9164  38.0220
    38.3717  38.5687  38.8761  38.9718  39.2874  39.5173  39.6905  39.8325
    40.1171  40.5047  40.6971  41.1264  41.4211  41.8325  42.0026  42.0153
    42.6996  42.7041  42.7600  42.8490  43.1916  43.3348  43.8271  43.9220
    44.0659  44.3176  44.3282  44.5990  44.9546  44.9796  45.4679  45.6506
    45.9464  46.0439  46.2555  46.3818  46.4339  46.8076  46.8307  47.0251
    47.0822  47.6916  47.7855  47.8281  48.3179  48.5418  48.7891  48.8470
    49.1085  49.3069  49.3212  49.6481  49.7672  49.8397  50.1349  50.1757
    50.6314  50.6672  50.7569  50.9022  51.5938  51.7019  51.9834  52.1113
    52.3970  52.5843  52.9996  53.0930  53.1736  53.3754  53.6262  53.7190
    54.0085  54.0872  54.3751  54.4595  54.9357  55.0388  55.3940  55.3997

          k = 0.4792 0.3248 0.0000 ( 14702 PWs)   bands (ev):

   -66.6354 -41.0514 -40.7995 -40.7260 -18.1596 -18.0254 -11.8894 -10.9291
   -10.1199  -9.1772  -7.8699  -7.0470  -6.5131  -3.5535  -3.0404  -1.9690
    -1.5772   0.2432   2.0067   2.4360   3.1256   3.8150   4.6076   5.0718
     5.2881   5.7903   5.8533   7.0420   7.4498   7.9842   8.4537   9.4909
    10.1626  10.2955  10.8842  11.4246  11.4912  12.1493  12.5317  13.0645
    13.2835  13.8237  13.9125  14.0765  14.7955  15.1367  15.4591  16.5028
    16.7425  16.7936  16.8038  17.0112  17.4084  17.8792  18.2054  18.6363
    19.0202  19.3534  19.4438  19.7889  20.4274  20.7410  20.7574  21.2029
    21.5860  21.8325  22.8293  22.8919  23.3769  23.9985  24.1234  24.6604
    24.9951  25.1467  25.6240  25.7246  26.1751  26.3627  26.8388  27.4928
    27.5301  28.1067  28.3734  28.9803  29.1045  29.1695  29.8680  30.0241
    30.5827  30.9550  31.2305  31.4344  31.9124  32.0534  32.6450  32.6639
    32.9099  32.9501  33.6074  33.8782  34.0983  34.1890  34.3624  34.6505
    34.8156  35.1085  35.1229  35.4967  35.8514  36.1531  36.3319  36.6763
    36.6921  36.8879  36.9599  37.0375  37.4385  37.6508  37.8519  37.8687
    38.3520  38.6855  38.8676  38.9548  39.1546  39.4914  39.7238  39.7280
    40.2547  40.5325  40.5386  41.2905  41.3161  41.9080  41.9532  41.9916
    42.6333  42.6562  42.7409  42.7505  43.1593  43.3192  43.8298  43.8488
    44.0407  44.2794  44.3092  44.6551  44.8701  45.0288  45.5019  45.6100
    45.9532  46.1259  46.1589  46.4496  46.4963  46.8237  46.8538  46.9934
    47.0037  47.5810  47.8217  47.8615  48.4102  48.6356  48.6611  48.8668
    49.1930  49.2528  49.2850  49.7358  49.7745  49.8125  50.0857  50.0870
    50.6809  50.7203  50.7882  51.0716  51.5192  51.6979  51.8882  52.1738
    52.3426  52.4839  52.9810  53.0013  53.0817  53.4321  53.6183  53.6934
    53.9152  54.1845  54.4226  54.4450  54.9478  54.9831  55.4425  55.4663

          k = 0.4833 0.3175 0.0000 ( 14702 PWs)   bands (ev):

   -66.6354 -41.0522 -40.7996 -40.7243 -18.1630 -18.0275 -11.8989 -10.9215
   -10.1235  -9.1745  -7.8723  -6.9874  -6.5394  -3.5556  -3.0448  -1.9841
    -1.5451   0.2324   1.9558   2.4047   3.1212   3.8046   4.6007   5.1194
     5.2960   5.7628   5.8449   7.0372   7.4405   7.9661   8.4484   9.5558
    10.1810  10.2855  10.8969  11.4579  11.5233  12.1447  12.5107  13.0748
    13.3977  13.8281  13.8671  14.1132  14.8628  15.1008  15.5575  16.3967
    16.7196  16.7792  16.8003  17.1111  17.3131  17.9624  18.1473  18.6161
    19.0225  19.2235  19.4398  19.6254  20.4013  20.7630  20.8901  21.1924
    21.7092  21.8267  22.6614  22.8482  23.2297  23.9965  24.1235  24.6606
    25.1120  25.1922  25.6456  25.7817  26.2963  26.4209  26.8619  27.3606
    27.4599  27.9463  28.3069  29.0176  29.0483  29.3357  29.8342  30.0833
    30.6221  31.0034  31.1879  31.3665  31.8913  32.0465  32.6978  32.7032
    32.8859  32.9650  33.6772  33.9900  34.0109  34.2962  34.3788  34.7605
    34.8733  35.1178  35.2945  35.5667  35.7402  36.0349  36.4713  36.5160
    36.5556  36.8678  37.0245  37.1493  37.4805  37.5108  37.7889  37.9098
    38.3455  38.7584  38.7673  38.8635  39.1922  39.4181  39.6020  39.8020
    40.3296  40.4229  40.6605  41.2443  41.4300  41.8287  41.9314  42.0117
    42.5650  42.5957  42.6439  42.7312  43.1749  43.3007  43.7690  43.8660
    43.9785  44.2392  44.3119  44.7611  44.8045  45.0318  45.4890  45.6592
    45.8723  46.0516  46.2804  46.4248  46.6149  46.8161  46.8525  46.9810
    47.0087  47.4769  47.7878  47.9482  48.4491  48.5208  48.7343  48.9171
    49.1753  49.2570  49.3075  49.6990  49.7867  49.8622  50.0290  50.0297
    50.7276  50.8142  50.8332  51.2388  51.4617  51.6908  51.8120  52.1639
    52.2094  52.4631  52.8751  52.8753  53.1612  53.3466  53.5658  53.8013
    53.8369  54.3176  54.3869  54.5433  54.8988  55.0100  55.4613  55.4929

          k = 0.4875 0.3103 0.0000 ( 14706 PWs)   bands (ev):

   -66.6355 -41.0529 -40.7997 -40.7230 -18.1656 -18.0292 -11.9064 -10.9156
   -10.1264  -9.1723  -7.8743  -6.9344  -6.5662  -3.5576  -3.0480  -1.9960
    -1.5190   0.2238   1.9154   2.3802   3.1177   3.7961   4.5954   5.1510
     5.3135   5.7367   5.8384   7.0334   7.4328   7.9517   8.4442   9.6099
    10.1935  10.2756  10.9126  11.4284  11.6078  12.1392  12.4919  13.0687
    13.4882  13.8103  13.8734  14.1413  14.9672  14.9933  15.7231  16.2422
    16.6625  16.7684  16.7937  17.2165  17.2622  18.0760  18.0845  18.6029
    19.0071  19.1061  19.4342  19.4778  20.3835  20.7782  21.0339  21.1846
    21.8155  21.8459  22.5024  22.7685  23.1232  23.9947  24.1198  24.6587
    25.2119  25.2232  25.6680  25.8425  26.3530  26.5638  26.8823  27.2360
    27.3704  27.7968  28.2532  28.9668  29.0424  29.5390  29.8165  30.1535
    30.6640  30.8385  31.2773  31.3346  31.8680  32.0361  32.6881  32.7640
    32.8847  32.9775  33.7723  33.9290  34.0331  34.3457  34.4378  34.9242
    34.9419  35.1003  35.4283  35.6515  35.6825  35.8954  36.3213  36.4327
    36.6341  36.7670  37.0772  37.3121  37.3696  37.4891  37.8291  37.9212
    38.3634  38.6244  38.7123  38.8869  39.2044  39.3516  39.5623  39.7992
    40.3301  40.4250  40.8197  41.2321  41.4839  41.7718  41.8326  42.0800
    42.4427  42.5154  42.6237  42.7031  43.2277  43.2761  43.7118  43.9013
    43.9106  44.1976  44.3325  44.7538  44.8929  44.9834  45.4902  45.7201
    45.7998  45.9799  46.3444  46.4046  46.6837  46.8158  46.8584  46.9915
    47.0730  47.3945  47.7460  48.0367  48.2763  48.6025  48.7122  49.0187
    49.1318  49.2591  49.3875  49.6594  49.7655  49.8852  49.9705  50.0088
    50.8103  50.8904  50.9060  51.3260  51.4929  51.6749  51.7715  51.9565
    52.1938  52.4498  52.7675  52.8088  53.2462  53.2498  53.4521  53.7328
    54.0224  54.2789  54.5225  54.6597  54.8803  55.0138  55.3614  55.5346

          k = 0.4917 0.3031 0.0000 ( 14708 PWs)   bands (ev):

   -66.6355 -41.0533 -40.7998 -40.7221 -18.1675 -18.0304 -11.9117 -10.9114
   -10.1285  -9.1706  -7.8759  -6.8902  -6.5914  -3.5592  -3.0502  -2.0047
    -1.4999   0.2177   1.8860   2.3625   3.1152   3.7900   4.5915   5.1680
     5.3365   5.7140   5.8338   7.0307   7.4269   7.9413   8.4411   9.6509
    10.2013  10.2668  10.9280  11.4045  11.6739  12.1335  12.4768  13.0610
    13.5346  13.7629  13.9576  14.1551  14.8749  15.0886  15.9036  16.0851
    16.5628  16.7612  16.7863  17.1495  17.4253  17.9858  18.2135  18.5960
    18.9663  19.0134  19.3647  19.4291  20.3717  20.7879  21.1630  21.1904
    21.7960  21.9912  22.3653  22.6478  23.0648  23.9933  24.1155  24.6568
    25.2180  25.3139  25.6904  25.8895  26.4088  26.7178  26.8968  27.1327
    27.2677  27.6668  28.2134  28.9035  29.0570  29.7086  29.8422  30.2207
    30.6455  30.7134  31.1751  31.4843  31.8501  32.0159  32.6324  32.8282
    32.9105  32.9875  33.8334  33.9017  34.0284  34.3041  34.5912  35.0215
    35.0761  35.0804  35.4566  35.6386  35.7622  35.8216  36.1369  36.3883
    36.6188  36.7364  37.0920  37.2947  37.4091  37.5495  37.8661  37.9380
    38.3734  38.4370  38.7432  38.9375  39.0980  39.2849  39.6632  39.7250
    40.2593  40.5262  40.9852  41.2795  41.3900  41.7110  41.8354  42.1345
    42.3059  42.4128  42.6463  42.6794  43.2467  43.3000  43.6533  43.8538
    43.9387  44.1636  44.3692  44.7182  44.9114  45.0233  45.4863  45.7393
    45.7615  45.9700  46.2594  46.4535  46.6683  46.8457  46.9202  47.0217
    47.1450  47.3388  47.7121  48.0738  48.1485  48.6578  48.6696  49.0796
    49.0939  49.3216  49.4598  49.6227  49.7486  49.8751  49.9127  49.9903
    50.9229  50.9539  50.9845  51.3056  51.6317  51.6558  51.7523  51.7684
    52.1205  52.4319  52.6589  52.8244  53.1709  53.2989  53.3388  53.6947
    54.2066  54.2095  54.7043  54.7752  54.8751  54.9902  55.2444  55.4724

          k = 0.4958 0.2959 0.0000 ( 14698 PWs)   bands (ev):

   -66.6355 -41.0536 -40.7999 -40.7215 -18.1687 -18.0311 -11.9148 -10.9089
   -10.1297  -9.1696  -7.8768  -6.8592  -6.6109  -3.5602  -3.0515  -2.0100
    -1.4882   0.2140   1.8682   2.3519   3.1138   3.7863   4.5892   5.1755
     5.3558   5.6978   5.8310   7.0290   7.4233   7.9350   8.4392   9.6767
    10.2055  10.2608  10.9393  11.3887  11.7166  12.1290  12.4670  13.0555
    13.5518  13.7319  14.0442  14.1605  14.7768  15.1970  15.9567  16.0852
    16.4244  16.7570  16.7811  17.1151  17.5858  17.8739  18.3220  18.5956
    18.9058  18.9545  19.3001  19.4256  20.3650  20.7933  21.1721  21.2928
    21.7684  22.1364  22.2692  22.5087  23.0391  23.9925  24.1125  24.6554
    25.2189  25.3723  25.7090  25.9163  26.4621  26.8536  26.9028  27.0655
    27.1659  27.5701  28.1887  28.8640  29.0642  29.7520  29.9946  30.2690
    30.4498  30.7698  31.0779  31.6039  31.8395  31.9856  32.5817  32.8746
    32.9345  32.9949  33.7999  33.9762  34.0091  34.2640  34.7254  35.0076
    35.1579  35.1625  35.5039  35.5114  35.8036  35.8297  36.0650  36.4042
    36.4533  36.7641  37.0681  37.3180  37.4074  37.7051  37.7862  38.0325
    38.2729  38.3632  38.8367  38.9549  38.9953  39.2080  39.6534  39.8099
    40.1413  40.6518  41.1396  41.2581  41.3399  41.5922  41.9254  42.1772
    42.1880  42.3159  42.6648  42.6722  43.2201  43.3739  43.5938  43.8171
    43.9651  44.1424  44.4112  44.6962  44.8460  45.1268  45.4717  45.6941
    45.7783  46.0044  46.1830  46.4722  46.6216  46.8708  46.9841  47.0587
    47.2185  47.3029  47.6949  47.9467  48.1952  48.6097  48.7086  49.0669
    49.0933  49.4120  49.5193  49.5941  49.7368  49.8637  49.8647  49.9568
    51.0008  51.0436  51.0467  51.2843  51.5655  51.6423  51.7619  51.7952
    52.0244  52.4087  52.5713  52.9019  53.1271  53.1544  53.3976  53.6678
    54.1541  54.3749  54.8364  54.8534  54.9147  54.9633  55.1560  55.2985

          k = 0.5000 0.2887 0.0000 ( 14702 PWs)   bands (ev):

   -66.6355 -41.0537 -40.7999 -40.7213 -18.1690 -18.0313 -11.9159 -10.9080
   -10.1302  -9.1692  -7.8771  -6.8477  -6.6187  -3.5606  -3.0520  -2.0117
    -1.4843   0.2127   1.8622   2.3483   3.1133   3.7850   4.5885   5.1776
     5.3632   5.6919   5.8301   7.0285   7.4221   7.9329   8.4386   9.6855
    10.2068  10.2586  10.9434  11.3832  11.7315  12.1273  12.4635  13.0535
    13.5559  13.7212  14.0826  14.1619  14.7360  15.2445  15.9028  16.2609
    16.2619  16.7556  16.7793  17.1050  17.7172  17.7593  18.3679  18.5980
    18.8716  18.9344  19.2806  19.4243  20.3628  20.7950  21.1714  21.3411
    21.7518  22.2288  22.2343  22.4170  23.0319  23.9922  24.1114  24.6550
    25.2187  25.3923  25.7166  25.9247  26.4854  26.9032  26.9250  27.0431
    27.1071  27.5322  28.1803  28.8507  29.0664  29.7550  30.1267  30.2865
    30.3147  30.8034  31.0293  31.6548  31.8361  31.9667  32.5619  32.8913
    32.9436  32.9981  33.7847  33.9997  34.0133  34.2437  34.7907  34.9766
    35.1715  35.2472  35.4041  35.6174  35.7004  35.8331  36.1339  36.3452
    36.4266  36.7524  37.0606  37.3464  37.4033  37.7444  37.7982  38.0464
    38.2088  38.3569  38.8979  38.9206  38.9897  39.1583  39.6264  39.9208
    40.0399  40.7166  41.1909  41.2298  41.3474  41.5381  41.9677  42.1382
    42.2102  42.2547  42.6599  42.6834  43.2090  43.4143  43.5592  43.8045
    43.9743  44.1352  44.4317  44.6888  44.8178  45.1684  45.4637  45.6755
    45.7826  46.0255  46.1528  46.4765  46.5985  46.8785  47.0076  47.0771
    47.2569  47.2879  47.6909  47.8865  48.2183  48.5906  48.7206  49.0571
    49.0947  49.4548  49.5501  49.5775  49.7319  49.8442  49.8589  49.9378
    51.0172  51.0671  51.1156  51.2825  51.4713  51.6369  51.8147  51.8231
    51.9695  52.3933  52.5385  53.0064  53.0277  53.1129  53.4228  53.6560
    54.1352  54.4561  54.8124  54.8615  54.9845  55.0813  55.1185  55.1240

          k = 0.4875 0.2815 0.0000 ( 14686 PWs)   bands (ev):

   -66.6356 -41.0530 -40.8000 -40.7211 -18.1733 -18.0329 -11.9119 -10.9040
   -10.1278  -9.1673  -7.8757  -6.8500  -6.6235  -3.5618  -3.0571  -2.0138
    -1.4853   0.2266   1.8589   2.3401   3.1116   3.7888   4.5770   5.1268
     5.3712   5.7537   5.8404   7.0265   7.3660   7.9934   8.4545   9.6760
    10.1835  10.2516  10.9499  11.3690  11.7224  12.1247  12.4658  13.0407
    13.5628  13.7277  14.0833  14.1636  14.7398  15.2474  15.9061  16.2619
    16.2727  16.7443  16.7558  17.1535  17.7191  17.7772  18.3756  18.6007
    18.8908  18.9418  19.2828  19.4397  20.2997  20.8613  21.1144  21.3439
    21.8055  22.2311  22.2475  22.4041  23.0299  23.9906  24.0134  24.7204
    25.1944  25.3842  25.7152  25.9431  26.4651  26.8172  26.9352  27.1223
    27.1409  27.5243  28.1734  28.8415  29.0490  29.7717  30.1273  30.2723
    30.3207  30.8117  31.0838  31.6223  31.8014  31.9587  32.5844  32.9132
    32.9605  32.9617  33.6117  33.9927  34.1652  34.2457  34.7407  34.9725
    35.1872  35.2016  35.2799  35.4314  35.5328  36.0496  36.3427  36.3677
    36.5173  36.6786  37.0872  37.2558  37.4494  37.7371  37.8114  37.8756
    38.3089  38.4441  38.8066  38.9714  39.1822  39.1856  39.6297  39.9016
    40.0386  40.7527  41.1068  41.1732  41.1913  41.6192  42.0053  42.1564
    42.1592  42.2178  42.6329  42.7953  43.3055  43.4185  43.5056  43.5749
    43.9024  44.4050  44.4305  44.6191  44.9062  45.2210  45.3947  45.4142
    45.6291  46.0593  46.1653  46.4130  46.6672  46.8266  47.0864  47.2448
    47.2467  47.2893  47.8068  47.9668  48.2828  48.4962  48.7497  48.8361
    48.9433  49.5272  49.5550  49.5595  49.5678  49.8926  50.1141  50.3019
    50.8982  50.9563  51.0789  51.1708  51.2423  51.6422  51.8766  52.0609
    52.0764  52.3120  52.6537  52.8583  53.0889  53.1684  53.4204  53.7499
    54.1532  54.5301  54.7082  54.7545  54.9278  54.9386  55.1006  55.2362

          k = 0.4750 0.2742 0.0000 ( 14672 PWs)   bands (ev):

   -66.6358 -41.0511 -40.8004 -40.7207 -18.1858 -18.0374 -11.8998 -10.8922
   -10.1208  -9.1616  -7.8714  -6.8568  -6.6379  -3.5655  -3.0722  -2.0203
    -1.4886   0.2676   1.8495   2.3162   3.1057   3.7980   4.5463   5.0195
     5.3951   5.8659   5.8941   7.0250   7.2454   8.1278   8.4991   9.6480
    10.1203  10.2320  10.9624  11.3268  11.6938  12.1173  12.4739  13.0070
    13.5824  13.7466  14.0858  14.1689  14.7497  15.2558  15.9161  16.2654
    16.3037  16.6744  16.7584  17.2631  17.7245  17.8283  18.3967  18.6079
    18.9491  18.9639  19.2901  19.4853  20.1707  20.9871  20.9996  21.3525
    21.9148  22.2380  22.2939  22.3683  23.0255  23.8052  23.9805  24.8110
    25.1339  25.3819  25.7110  25.9914  26.4086  26.7176  26.9621  27.1642
    27.2733  27.4997  28.1530  28.8244  29.0007  29.8032  30.1280  30.2525
    30.3491  30.8356  31.2044  31.5335  31.7355  31.9436  32.6271  32.8516
    32.9521  33.0052  33.3827  33.9619  34.2465  34.3127  34.6367  34.8748
    35.0166  35.1181  35.2425  35.2955  35.2997  36.2851  36.2938  36.5998
    36.6554  36.7997  37.0195  37.1090  37.5584  37.6668  37.7678  37.9243
    38.2015  38.7170  38.8143  39.1176  39.2421  39.4177  39.6585  39.8538
    40.0378  40.8446  40.9061  40.9424  41.0893  41.7769  41.8566  41.9969
    42.1012  42.2158  42.7977  43.0023  43.1514  43.4221  43.4667  43.5432
    43.8992  44.3459  44.4644  44.6416  44.8992  45.0862  45.1002  45.3259
    45.6529  45.9561  46.1451  46.4504  46.5221  46.8311  47.1117  47.2170
    47.6071  47.6186  47.7306  48.1970  48.2146  48.2994  48.5943  48.8252
    49.0524  49.3064  49.4638  49.6190  49.7687  50.0058  50.4673  50.5928
    50.7082  50.8128  50.8442  50.9286  51.2496  51.6754  51.9715  52.0275
    52.0956  52.4288  52.8655  52.9826  53.2374  53.2687  53.4255  53.7852
    54.0183  54.4500  54.5566  54.6498  54.9007  54.9473  55.0924  55.2379

          k = 0.4625 0.2670 0.0000 ( 14688 PWs)   bands (ev):

   -66.6362 -41.0479 -40.8011 -40.7199 -18.2065 -18.0449 -11.8800 -10.8726
   -10.1094  -9.1520  -7.8643  -6.8683  -6.6611  -3.5714  -3.0965  -2.0312
    -1.4940   0.3343   1.8352   2.2785   3.0931   3.8068   4.5047   4.9065
     5.4346   5.8932   6.0613   7.0358   7.1131   8.2843   8.5643   9.6019
    10.0321  10.2046  10.9670  11.2571  11.6426  12.1053  12.4916  12.9637
    13.6133  13.7744  14.0916  14.1796  14.7624  15.2697  15.9332  16.2725
    16.3504  16.6046  16.7669  17.3969  17.7336  17.9064  18.4270  18.6179
    19.0000  19.0475  19.3031  19.5600  20.0317  20.8405  21.1521  21.3673
    22.0080  22.2495  22.3190  22.3886  23.0217  23.5659  23.9480  24.8054
    25.0641  25.4355  25.7041  26.0572  26.3240  26.6602  26.9989  27.2211
    27.3763  27.4605  28.1201  28.8156  28.9320  29.8173  30.1261  30.2607
    30.4191  30.8720  31.2676  31.4073  31.7573  31.9367  32.6131  32.6827
    32.9539  33.0475  33.2377  33.8816  34.2254  34.2807  34.5151  34.6694
    34.9775  34.9815  35.0329  35.2268  35.4025  36.1265  36.3151  36.5972
    36.8215  36.8898  37.1208  37.1330  37.5364  37.8057  37.8879  37.9003
    38.1798  38.9172  38.9591  39.1788  39.3232  39.5449  39.7704  39.8192
    40.0366  40.7034  40.8085  40.9451  41.0399  41.5800  41.7878  41.8913
    41.9467  42.1981  43.0007  43.0654  43.2126  43.2860  43.4028  43.8013
    43.9147  44.2448  44.2853  44.3028  44.4933  45.0517  45.2258  45.4295
    45.6881  45.7576  46.2489  46.3042  46.5576  47.0173  47.1404  47.1931
    47.3079  47.6598  48.0673  48.1057  48.1920  48.2756  48.8211  48.9191
    49.2285  49.2306  49.5395  49.6900  49.9182  49.9762  50.2587  50.4402
    50.5627  50.6646  50.9820  51.0504  51.3580  51.7637  51.8555  52.0445
    52.0572  52.7934  53.2005  53.2216  53.3072  53.4033  53.5235  53.6008
    53.9003  54.1488  54.4037  54.4249  55.0168  55.0493  55.1033  55.2812

          k = 0.4500 0.2598 0.0000 ( 14676 PWs)   bands (ev):

   -66.6367 -41.0434 -40.8021 -40.7189 -18.2351 -18.0554 -11.8527 -10.8452
   -10.0941  -9.1386  -7.8542  -6.8844  -6.6919  -3.5790  -3.1286  -2.0468
    -1.5016   0.4245   1.8175   2.2298   3.0707   3.8062   4.4619   4.8107
     5.4891   5.9068   6.2258   6.9988   7.0729   8.4382   8.6390   9.5388
     9.9353  10.1767  10.9523  11.1611  11.5662  12.0890  12.5234  12.9219
    13.6554  13.8000  14.1026  14.2038  14.7755  15.2886  15.9584  16.2846
    16.4023  16.5499  16.7847  17.5392  17.7463  18.0038  18.4624  18.6279
    19.0488  19.1851  19.3202  19.6619  19.9070  20.6971  21.2919  21.3892
    22.0543  22.2654  22.2733  22.5240  23.0202  23.3349  23.8789  24.6921
    25.0100  25.5400  25.6948  26.1315  26.2180  26.6519  27.0413  27.2667
    27.4272  27.4335  28.0765  28.8150  28.8553  29.8122  30.1158  30.3127
    30.5319  30.9150  31.1971  31.2638  31.9399  31.9427  32.4711  32.4729
    32.8756  33.0551  33.2371  33.7484  34.0737  34.1486  34.3607  34.5486
    34.8206  34.9644  35.0914  35.1092  35.5139  35.8531  36.3746  36.3940
    36.6985  36.9425  37.2751  37.3586  37.7382  37.8186  37.9522  38.0845
    38.3728  38.9666  39.0999  39.1369  39.4231  39.4700  39.8760  39.9363
    39.9846  40.7496  40.7548  40.9956  41.0392  41.2883  41.4506  41.9072
    42.0166  42.1010  42.9525  43.0534  43.3488  43.3772  43.3834  43.6238
    43.7302  44.1305  44.1472  44.2390  44.3148  45.0263  45.1607  45.5099
    45.6678  45.7534  46.2270  46.3363  46.5570  47.0804  47.0941  47.1429
    47.1937  47.4910  47.9865  48.0844  48.4844  48.6479  48.7368  48.9996
    49.2004  49.4188  49.6785  49.7283  49.8839  49.9427  50.2380  50.3830
    50.4319  50.5300  50.8372  51.1512  51.5201  51.8423  52.0964  52.1369
    52.2660  53.0723  53.2562  53.2733  53.2959  53.4422  53.5923  53.6644
    53.8935  53.9217  54.4054  54.4222  54.8544  54.9930  55.1258  55.1770

          k = 0.4375 0.2526 0.0000 ( 14692 PWs)   bands (ev):

   -66.6373 -41.0377 -40.8033 -40.7175 -18.2712 -18.0685 -11.8184 -10.8105
   -10.0755  -9.1214  -7.8412  -6.9052  -6.7290  -3.5880  -3.1670  -2.0674
    -1.5116   0.5354   1.7982   2.1727   3.0358   3.7872   4.4253   4.7435
     5.5581   5.8969   6.3500   6.9397   7.1452   8.5718   8.7106   9.4602
     9.8458  10.1580  10.9154  11.0406  11.4649  12.0689  12.5728  12.8877
    13.7100  13.8060  14.1206  14.2555  14.7889  15.3124  15.9924  16.3032
    16.4283  16.5371  16.8123  17.6803  17.7626  18.1130  18.5010  18.6360
    19.1082  19.3318  19.3581  19.7881  19.8186  20.5683  21.3949  21.4194
    22.0492  22.2566  22.2855  22.6435  23.0204  23.1705  23.7686  24.5213
    24.9852  25.6451  25.6832  26.0954  26.2079  26.6872  27.0873  27.2469
    27.4475  27.4557  28.0237  28.7781  28.8002  29.8213  30.0880  30.4087
    30.6704  30.9553  31.0786  31.1210  31.9423  32.1724  32.2380  32.2731
    32.7291  32.9910  33.2946  33.5992  33.8514  34.0267  34.1474  34.4834
    34.7706  34.9804  35.0289  35.1347  35.4862  35.6247  36.3088  36.4276
    36.4574  36.9262  37.4122  37.5218  37.6795  38.1709  38.1940  38.3058
    38.5884  38.8617  38.9710  39.0731  39.4353  39.5463  39.9102  40.0371
    40.0382  40.6315  40.9026  40.9973  41.0899  41.1873  41.2556  41.8169
    42.0514  42.2088  42.6675  42.8807  43.1166  43.2916  43.4095  43.4156
    43.8630  44.0151  44.0826  44.1859  44.3820  45.0599  45.0899  45.5579
    45.6576  45.6961  46.2368  46.3112  46.3792  46.7937  47.0983  47.2331
    47.2438  47.7334  47.9840  48.1453  48.3431  48.5822  48.9765  49.0356
    49.2416  49.3537  49.6737  49.6803  49.7588  49.9067  50.4278  50.4604
    50.5264  50.6028  50.6974  51.3497  51.7280  51.9327  52.2146  52.3708
    52.4290  53.0567  53.1203  53.1463  53.2764  53.4855  53.5379  53.8063
    53.9887  54.1945  54.4796  54.5687  54.6816  54.9686  54.9840  55.1573

          k = 0.4250 0.2454 0.0000 ( 14698 PWs)   bands (ev):

   -66.6380 -41.0309 -40.8047 -40.7159 -18.3142 -18.0844 -11.7776 -10.7685
   -10.0542  -9.1005  -7.8252  -6.9307  -6.7703  -3.5976  -3.2103  -2.0934
    -1.5240   0.6639   1.7789   2.1096   2.9872   3.7449   4.3990   4.7079
     5.6406   5.8631   6.3852   6.9840   7.2526   8.6664   8.7672   9.3677
     9.7795  10.1581  10.8639  10.8978  11.3432  12.0454  12.6404  12.8608
    13.7790  13.7809  14.1476  14.3438  14.8052  15.3407  16.0362  16.3292
    16.4053  16.5807  16.8481  17.7825  17.8105  18.2273  18.5424  18.6431
    19.1751  19.3171  19.5610  19.7949  19.9350  20.4618  21.4400  21.4600
    21.9739  22.2930  22.3098  22.6616  23.0173  23.1732  23.6296  24.3318
    24.9900  25.6698  25.7196  25.9603  26.2815  26.7487  27.1363  27.1822
    27.4409  27.5329  27.9630  28.7024  28.7436  29.8777  30.0300  30.5335
    30.8184  30.9679  30.9766  30.9967  31.8454  32.0080  32.1506  32.2300
    32.7143  32.8323  33.2577  33.4499  33.7723  33.8798  33.9204  34.4289
    34.7700  34.9431  35.0092  35.0144  35.3383  35.6087  36.2491  36.3482
    36.3962  36.8885  37.4203  37.7276  37.7310  38.4001  38.4495  38.4662
    38.7298  38.7350  38.7917  38.9557  39.4393  39.6956  39.9375  40.0163
    40.2346  40.4066  40.7952  41.0217  41.1919  41.3226  41.4432  41.6954
    42.2330  42.2662  42.2857  42.3840  42.8328  43.2927  43.2992  43.4968
    43.6521  44.0126  44.1491  44.1760  44.4769  44.9934  45.1169  45.5739
    45.6202  45.6292  46.2119  46.2509  46.3591  46.6061  47.0440  47.3128
    47.4580  47.8138  48.0649  48.0766  48.1911  48.4394  48.9977  49.1050
    49.1735  49.4023  49.4872  49.6012  49.6206  49.8895  50.3741  50.6456
    50.7279  50.8370  51.1820  51.5592  51.9287  52.0333  52.2509  52.3402
    52.4076  52.7943  53.0468  53.1748  53.3773  53.4916  53.5263  53.8476
    54.2570  54.3019  54.4799  54.5651  55.0497  55.0633  55.0917  55.1977

          k = 0.4125 0.2382 0.0000 ( 14694 PWs)   bands (ev):

   -66.6389 -41.0228 -40.8065 -40.7140 -18.3637 -18.1027 -11.7310 -10.7196
   -10.0313  -9.0759  -7.8061  -6.9609  -6.8139  -3.6071  -3.2570  -2.1249
    -1.5388   0.8064   1.7607   2.0427   2.9258   3.6815   4.3832   4.6980
     5.7357   5.8123   6.3428   7.1180   7.3869   8.7071   8.8009   9.2631
     9.7453  10.1823  10.7353  10.8161  11.2110  12.0188  12.7241  12.8361
    13.7279  13.8631  14.1848  14.4645  14.8288  15.3731  16.0900  16.3635
    16.3684  16.6375  16.8885  17.8061  17.9177  18.3406  18.5869  18.6556
    19.2454  19.2689  19.7877  19.8459  20.0976  20.3837  21.4275  21.5138
    21.8083  22.3381  22.3835  22.6271  22.9970  23.3046  23.4923  24.1531
    25.0177  25.6546  25.7513  25.8165  26.3469  26.8066  27.1144  27.1885
    27.4509  27.6226  27.8957  28.6302  28.6411  29.9295  29.9850  30.6267
    30.9048  30.9218  30.9510  30.9609  31.6333  31.8137  32.0087  32.1309
    32.5939  32.9553  33.1136  33.2912  33.5834  33.8452  33.8546  34.3405
    34.7607  34.7650  34.8153  35.0346  35.2704  35.7412  36.1099  36.1697
    36.4772  36.8379  37.4926  37.8653  37.8726  38.2660  38.3139  38.3647
    38.7848  38.7861  38.9383  39.0350  39.3653  39.8660  39.9415  40.0648
    40.2856  40.4251  40.7117  41.1304  41.2721  41.3346  41.4831  41.7689
    41.9982  42.1049  42.1762  42.4845  42.6486  43.1318  43.2903  43.3798
    43.3928  43.9823  44.3270  44.3404  44.5672  44.7284  44.8084  45.5682
    45.6946  45.8548  46.2334  46.2423  46.2879  46.5940  47.0232  47.4182
    47.5630  47.6040  47.7472  48.1272  48.1433  48.5596  48.8999  48.9755
    49.1106  49.2016  49.4657  49.6191  49.6696  49.8561  50.7104  50.7404
    50.8868  51.1562  51.5320  51.5983  51.9240  52.1641  52.2219  52.4307
    52.4725  52.5792  53.0803  53.2618  53.2889  53.4898  53.5179  53.6422
    54.4931  54.6630  54.6673  54.6700  55.1143  55.2502  55.4299  55.4994

          k = 0.4000 0.2309 0.0000 ( 14688 PWs)   bands (ev):

   -66.6399 -41.0136 -40.8084 -40.7119 -18.4189 -18.1233 -11.6793 -10.6642
   -10.0078  -9.0477  -7.7839  -6.9958  -6.8573  -3.6160  -3.3059  -2.1623
    -1.5563   0.9587   1.7438   1.9742   2.8551   3.6043   4.3745   4.7018
     5.7543   5.8422   6.2768   7.2815   7.5359   8.6980   8.8120   9.1485
     9.7315  10.2233  10.5562  10.7990  11.0854  11.9893  12.8071  12.8182
    13.6589  13.9612  14.2331  14.6087  14.8653  15.4097  16.1531  16.3268
    16.4064  16.6906  16.9293  17.8336  17.9884  18.4475  18.6348  18.6832
    19.2078  19.3145  19.9496  20.0318  20.2695  20.3366  21.3795  21.5741
    21.5850  22.3703  22.4996  22.6170  22.9378  23.4041  23.4352  24.0305
    25.0617  25.6379  25.6681  25.7376  26.3992  26.8350  27.0578  27.2439
    27.5055  27.7069  27.8221  28.5179  28.5696  29.7823  30.1173  30.5751
    30.8458  30.8489  31.0287  31.0434  31.4557  31.6884  31.7421  32.0999
    32.3110  32.9873  33.0913  33.2595  33.2811  33.7732  33.9692  34.1699
    34.5212  34.7060  34.7180  35.0827  35.2820  35.8863  35.9449  36.0554
    36.4786  36.7594  37.6220  37.9115  37.9366  38.0353  38.1308  38.2336
    38.6225  38.7502  38.9395  39.2298  39.4829  40.0418  40.0506  40.1413
    40.2370  40.6006  40.6993  40.9480  41.2136  41.3382  41.4703  41.6674
    42.1151  42.1210  42.2381  42.5581  42.5824  42.9926  43.0669  43.1508
    43.5198  44.0811  44.2329  44.4471  44.4760  44.6066  44.6264  45.5612
    45.7550  46.1391  46.1752  46.2133  46.2858  46.7263  47.0323  47.2780
    47.3885  47.5169  47.7297  47.9986  48.1292  48.6133  48.6587  48.8143
    48.9752  49.1369  49.5922  49.6617  49.7075  50.2335  50.7308  50.7844
    50.9353  51.5216  51.5431  51.6323  51.9736  52.1169  52.1480  52.3874
    52.7143  52.8205  53.1129  53.1521  53.2135  53.5655  53.6395  53.6844
    54.5689  54.8396  54.9473  54.9790  55.2511  55.3290  55.6773  55.6865

          k = 0.3875 0.2237 0.0000 ( 14698 PWs)   bands (ev):

   -66.6410 -41.0034 -40.8106 -40.7095 -18.4794 -18.1459 -11.6233 -10.6026
    -9.9848  -9.0159  -7.7585  -7.0353  -6.8982  -3.6235  -3.3558  -2.2057
    -1.5765   1.1158   1.7275   1.9068   2.7803   3.5215   4.3674   4.7061
     5.6987   5.9589   6.2177   7.4291   7.6832   8.6700   8.8122   9.0259
     9.7089  10.2518  10.3635  10.8391  10.9989  11.9569  12.7690  12.9111
    13.5907  14.0698  14.2929  14.7688  14.9200  15.4501  16.2237  16.2775
    16.4582  16.7373  16.9672  17.8651  18.0153  18.5430  18.6864  18.7270
    19.1581  19.3788  20.0785  20.2870  20.3134  20.4432  21.3196  21.3196
    21.6789  22.4066  22.5786  22.6244  22.8687  23.3935  23.4616  24.0442
    25.1182  25.5197  25.6197  25.6823  26.4344  26.8365  27.0167  27.3025
    27.5937  27.7427  27.7575  28.4213  28.5374  29.5949  30.2322  30.4227
    30.6595  30.8192  30.9354  31.1959  31.4822  31.5260  31.6290  32.0133
    32.0283  32.8903  32.9100  32.9913  33.4964  33.6727  33.9614  34.0037
    34.3665  34.6558  34.6993  35.1195  35.3117  35.7293  35.9910  36.0686
    36.4038  36.6342  37.4811  37.8563  37.8984  37.9295  38.1662  38.1706
    38.3279  38.6895  38.8338  39.4661  39.5492  39.9138  40.1586  40.2477
    40.4492  40.5813  40.5954  40.7703  41.2297  41.5023  41.6210  41.6269
    42.0862  42.1851  42.2026  42.4604  42.5418  43.0355  43.0402  43.2132
    43.6586  43.8571  43.8859  44.4743  44.5912  44.6467  44.6725  45.5806
    45.7243  46.0558  46.0758  46.1794  46.5033  46.8893  47.0383  47.0488
    47.3015  47.5675  47.7867  47.8214  48.0137  48.4383  48.4596  48.8114
    48.9015  49.2047  49.6014  49.7237  50.0068  50.3319  50.6779  50.7235
    50.8940  51.5989  51.7607  51.7648  51.7846  51.9711  52.2966  52.4416
    52.7242  52.7591  53.2198  53.3077  53.4589  53.7776  53.8506  54.0178
    54.4783  54.7907  55.0482  55.1561  55.4000  55.4470  55.6089  55.7896

          k = 0.3750 0.2165 0.0000 ( 14710 PWs)   bands (ev):

   -66.6422 -40.9922 -40.8130 -40.7068 -18.5444 -18.1705 -11.5640 -10.5352
    -9.9633  -8.9805  -7.7299  -7.0794  -6.9341  -3.6289  -3.4059  -2.2549
    -1.5996   1.2687   1.7096   1.8465   2.7076   3.4398   4.3558   4.7000
     5.6536   6.0842   6.1783   7.5199   7.8067   8.6710   8.8245   8.8972
     9.6592  10.1605  10.2216  10.9469  10.9970  11.9217  12.7197  12.9790
    13.5504  14.1835  14.3643  14.9394  14.9978  15.4945  16.2165  16.2982
    16.5189  16.7778  17.0009  17.9009  18.0051  18.6225  18.7417  18.7667
    19.1435  19.4376  20.2092  20.2836  20.5463  20.6101  21.1021  21.2645
    21.8018  22.4478  22.5169  22.6242  22.9107  23.3920  23.4462  24.1870
    25.1860  25.3762  25.5970  25.5997  26.4500  26.8274  26.9874  27.3640
    27.6572  27.6791  27.7363  28.4081  28.5561  29.3778  30.2046  30.2485
    30.4244  30.7867  30.7961  31.2278  31.5206  31.5845  31.5917  31.7247
    31.9797  32.6608  32.7337  32.8328  33.5255  33.5413  33.8884  33.9117
    34.3746  34.6035  34.7568  35.0683  35.3434  35.6105  36.0268  36.1072
    36.2633  36.4679  37.2022  37.6694  37.6970  37.8674  38.1673  38.1705
    38.2849  38.7181  38.8621  39.2961  39.5414  39.6132  40.1363  40.2650
    40.4525  40.6062  40.8446  40.9367  41.3487  41.4502  41.5676  41.8886
    41.9244  42.1563  42.2907  42.4373  42.4536  42.9564  43.3170  43.4246
    43.5200  43.7358  43.7682  44.6505  44.6586  44.6754  44.6856  45.5272
    45.6526  45.7852  46.0024  46.1969  46.6360  46.9275  46.9585  47.0511
    47.3434  47.5555  47.6741  47.8781  47.9125  48.2327  48.4103  48.9166
    48.9494  49.3243  49.4218  49.7915  50.1499  50.1526  50.4977  50.6917
    51.3299  51.5094  51.5246  51.6056  51.7301  52.0658  52.3669  52.6115
    52.9180  52.9659  53.3115  53.3557  53.7088  54.0557  54.0789  54.1615
    54.7008  54.7098  55.0346  55.1899  55.4061  55.4274  55.5073  55.7798

          k = 0.3625 0.2093 0.0000 ( 14702 PWs)   bands (ev):

   -66.6435 -40.9800 -40.8155 -40.7040 -18.6132 -18.1966 -11.5022 -10.4624
    -9.9445  -8.9418  -7.6981  -7.1279  -6.9628  -3.6317  -3.4552  -2.3098
    -1.6257   1.3978   1.6869   1.8098   2.6442   3.3641   4.3337   4.6766
     5.6252   6.1632   6.2165   7.5214   7.8800   8.7412   8.7645   8.8773
     9.5880   9.9501  10.1182  11.0925  11.1122  11.8834  12.6591  12.9882
    13.5743  14.2961  14.4470  15.1024  15.1167  15.5428  16.1402  16.3703
    16.5886  16.8137  17.0326  17.9411  17.9726  18.6803  18.7724  18.8005
    19.1824  19.4917  20.1899  20.3181  20.7626  20.8018  20.9929  21.2280
    21.9587  22.3859  22.4955  22.5904  23.0201  23.3225  23.5440  24.3702
    25.2432  25.2653  25.5031  25.5772  26.4432  26.8138  26.9592  27.4276
    27.5658  27.6559  27.7374  28.4863  28.6384  29.1408  29.9362  30.0789
    30.1687  30.7475  30.7759  31.1218  31.4753  31.5284  31.5522  31.7021
    32.0854  32.4230  32.5328  32.6987  33.3334  33.3636  33.8539  33.9690
    34.3840  34.5750  34.8475  34.8839  35.3835  35.6390  35.9636  36.0743
    36.1239  36.3154  36.9503  37.4025  37.5555  37.6187  38.0173  38.2920
    38.4741  38.8585  38.8703  38.9206  39.1096  39.6508  40.0799  40.0905
    40.6483  40.6662  40.9777  41.0632  41.2599  41.4509  41.5214  41.9912
    42.0308  42.2625  42.3574  42.3842  42.7010  42.7422  43.1809  43.6320
    43.6841  43.7043  43.9521  44.5951  44.6528  44.7093  44.8185  45.2926
    45.4877  45.7813  45.9919  46.2444  46.6808  46.8288  46.8290  47.0267
    47.3136  47.5147  47.7307  47.7933  47.9949  48.2351  48.5516  49.0488
    49.0963  49.1235  49.4375  49.7686  49.8569  50.0231  50.6138  50.8167
    51.0550  51.2824  51.4936  51.5601  51.8903  52.0171  52.7623  52.8076
    53.1543  53.2064  53.3617  53.3941  53.6542  54.1209  54.1883  54.3775
    54.8063  54.8657  55.0926  55.2660  55.4232  55.4411  55.5131  55.7047

          k = 0.3500 0.2021 0.0000 ( 14726 PWs)   bands (ev):

   -66.6449 -40.9669 -40.8183 -40.7009 -18.6853 -18.2242 -11.4393 -10.3847
    -9.9288  -8.8997  -7.6631  -7.1805  -6.9823  -3.6313  -3.5032  -2.3701
    -1.6549   1.4603   1.6548   1.8357   2.5972   3.2983   4.2975   4.6334
     5.6173   6.1717   6.3539   7.4360   7.8875   8.6295   8.8781   8.9852
     9.5170   9.7357   9.9735  11.2549  11.3180  11.8419  12.5896  12.9327
    13.6701  14.4027  14.5409  15.2345  15.2981  15.5953  16.0475  16.4297
    16.6671  16.8461  17.0695  17.9313  17.9861  18.7059  18.7424  18.8625
    19.2612  19.5421  20.0204  20.3841  20.8966  21.0163  21.0434  21.2220
    22.1513  22.2690  22.5075  22.5534  23.1385  23.2994  23.6742  24.5396
    25.1268  25.3568  25.4329  25.5510  26.4071  26.7914  26.9201  27.4691
    27.4909  27.5780  27.7745  28.6146  28.7661  28.8923  29.6485  29.8047
    29.9072  30.6259  30.8456  31.0084  31.3094  31.4081  31.4168  31.8889
    32.2064  32.2674  32.4076  32.5298  33.1108  33.1568  33.8803  34.0093
    34.2934  34.5657  34.6399  34.9105  35.4388  35.7443  35.7782  35.8882
    36.0826  36.2582  36.6776  37.1646  37.4660  37.4977  37.8063  38.2990
    38.3709  38.6415  38.7578  39.0374  39.1079  39.5793  39.9657  39.9979
    40.4531  40.7394  40.7953  41.1127  41.3026  41.5776  41.6238  41.8865
    42.1973  42.3553  42.3795  42.6208  42.6964  43.0534  43.0594  43.5866
    43.8247  43.8972  44.1832  44.3569  44.6213  44.6869  44.7966  45.2037
    45.5036  45.9425  45.9489  46.2910  46.5389  46.6928  46.7540  46.9909
    47.2593  47.4961  47.7847  47.8841  47.8896  48.5073  48.5889  49.0300
    49.1796  49.2886  49.4362  49.5290  49.9147  49.9254  50.4787  50.6152
    50.8857  51.1163  51.4456  51.6564  51.9121  52.3739  52.8045  53.0235
    53.2219  53.2608  53.4349  53.6243  53.7311  54.0685  54.3967  54.5372
    54.6760  54.8875  55.0990  55.2443  55.3557  55.5414  55.5610  56.0972

          k = 0.3375 0.1949 0.0000 ( 14744 PWs)   bands (ev):

   -66.6464 -40.9531 -40.8212 -40.6977 -18.7600 -18.2530 -11.3764 -10.3027
    -9.9167  -8.8544  -7.6250  -7.2369  -6.9910  -3.6273  -3.5490  -2.4351
    -1.6873   1.4403   1.6095   1.9361   2.5726   3.2453   4.2463   4.5718
     5.6302   6.1985   6.4941   7.2935   7.8371   8.4939   9.0292   9.1278
     9.4879   9.5205   9.8294  11.4549  11.5481  11.7971  12.5158  12.8405
    13.8121  14.5005  14.6454  15.3909  15.4813  15.6520  15.9408  16.4639
    16.7544  16.8750  17.1225  17.8906  18.0360  18.6778  18.6924  18.9270
    19.3481  19.5877  19.8450  20.4011  21.0124  21.1212  21.2495  21.2583
    22.1927  22.3767  22.3848  22.6276  23.2614  23.3237  23.8250  24.6522
    25.0336  25.4307  25.4606  25.5191  26.3277  26.7546  26.8743  27.3685
    27.5429  27.5487  27.8095  28.6422  28.7541  28.8728  29.4073  29.5131
    29.6464  30.4132  30.8703  30.9260  31.2328  31.2409  31.2485  31.9468
    32.1376  32.2110  32.3496  32.5847  32.8740  32.9571  33.9542  33.9876
    34.0948  34.3871  34.5635  34.8724  35.4543  35.5320  35.7795  35.8775
    35.9791  36.3001  36.3919  36.9791  37.4001  37.5222  37.5746  37.8530
    38.0448  38.6677  38.8877  39.2117  39.2244  39.4197  39.7942  39.8932
    40.2270  40.4182  40.8332  41.1407  41.3536  41.5177  41.7597  41.8820
    42.0926  42.4607  42.6512  42.9260  42.9783  43.0665  43.2259  43.5685
    43.8688  44.0041  44.0753  44.1709  44.5961  44.6807  44.8800  45.2112
    45.7062  45.8860  46.1017  46.3043  46.3239  46.6315  46.7577  46.9754
    47.1952  47.5425  47.7734  47.8420  48.0080  48.3993  48.5654  49.2966
    49.3179  49.4187  49.4347  49.6079  49.8204  49.9704  50.2258  50.3174
    50.6042  51.0739  51.7055  51.8334  51.8611  52.3096  52.5776  53.1938
    53.3067  53.4817  53.6125  53.7117  53.8536  54.3303  54.4387  54.4597
    54.6463  54.7689  54.9600  55.4326  55.5514  55.5873  55.6760  56.2715

          k = 0.3250 0.1876 0.0000 ( 14740 PWs)   bands (ev):

   -66.6480 -40.9385 -40.8242 -40.6943 -18.8367 -18.2828 -11.3152 -10.2166
    -9.9078  -8.8059  -7.5838  -7.2968  -6.9877  -3.6194  -3.5921  -2.5042
    -1.7231   1.3780   1.5491   2.0657   2.5734   3.2080   4.1819   4.4952
     5.6614   6.2362   6.6341   7.1226   7.7475   8.3593   9.1007   9.2321
     9.3084   9.5810   9.7565  11.6736  11.7488  11.7846  12.4490  12.7374
    13.9783  14.5881  14.7601  15.5576  15.6641  15.7131  15.8332  16.4643
    16.8504  16.9001  17.1998  17.8549  18.0912  18.5696  18.6321  18.9933
    19.4161  19.6250  19.7352  20.3896  21.1135  21.2555  21.3000  21.4322
    22.1636  22.2487  22.6284  22.7262  23.3806  23.3949  23.9855  24.6852
    24.9702  25.4785  25.5228  25.5741  26.1957  26.7032  26.8445  27.2673
    27.5527  27.5874  27.8505  28.4074  28.7953  28.8378  29.2833  29.3760
    29.3886  30.1459  30.6845  30.9576  31.0282  31.0974  31.2278  31.8378
    32.0168  32.2446  32.3284  32.6376  32.7436  32.7772  33.7979  33.9155
    34.0832  34.1460  34.5542  34.7049  35.3108  35.3607  35.6906  35.8405
    36.0192  36.2429  36.3237  36.8695  37.2247  37.3401  37.5922  37.6020
    37.7293  38.6594  38.9227  39.2013  39.3146  39.4086  39.4594  39.8256
    40.1618  40.2110  40.7499  41.1796  41.2421  41.2762  41.9237  42.0054
    42.1102  42.6448  42.8958  43.0906  43.0998  43.1742  43.2619  43.6112
    43.7538  43.8173  44.1373  44.2362  44.6553  44.8871  44.9411  45.1063
    45.7081  45.9402  46.2344  46.3195  46.3629  46.6155  46.7642  46.9857
    47.1242  47.5814  47.6770  47.9491  47.9777  48.4284  48.4458  49.4303
    49.4304  49.4454  49.6589  49.6773  49.6982  50.0397  50.1368  50.1804
    50.3670  51.1859  51.6197  51.9375  52.0707  52.1235  52.2428  53.1308
    53.5354  53.6033  53.6999  53.8495  54.0699  54.2797  54.4889  54.5315
    54.5949  54.8127  54.9731  55.6408  55.6514  55.7596  55.7752  56.1846

          k = 0.3125 0.1804 0.0000 ( 14761 PWs)   bands (ev):

   -66.6496 -40.9234 -40.8274 -40.6908 -18.9148 -18.3133 -11.2575 -10.1271
    -9.9009  -8.7545  -7.5400  -7.3597  -6.9720  -3.6318  -3.6075  -2.5765
    -1.7623   1.2995   1.4744   2.1928   2.5991   3.1894   4.1076   4.4067
     5.7068   6.2758   6.7698   6.9443   7.6339   8.2269   9.0820   9.1039
     9.1925   9.7993   9.8551  11.6968  11.8914  11.9841  12.4292  12.6462
    14.1573  14.6640  14.8845  15.6205  15.7789  15.8387  15.8417  16.4335
    16.9207  16.9551  17.3002  17.8243  18.1518  18.3799  18.5656  19.0601
    19.4458  19.6390  19.7284  20.3849  21.2042  21.3598  21.3721  21.5535
    22.1371  22.1768  22.8548  22.8989  23.4585  23.5440  24.1476  24.6670
    24.9424  25.4256  25.6781  25.6851  26.0305  26.6461  26.8434  27.1701
    27.5720  27.5900  27.8793  28.2260  28.5808  28.7122  29.1340  29.2741
    29.5222  29.8563  30.4532  30.7787  30.8177  31.1154  31.2286  31.7444
    31.8540  32.2794  32.3150  32.4155  32.6547  32.7715  33.5721  33.8100
    33.9299  34.1678  34.4456  34.5219  35.1556  35.2263  35.4437  35.7028
    36.1138  36.1528  36.3435  36.8796  36.9404  37.1191  37.5697  37.5728
    37.7052  38.4916  38.7369  38.9486  39.2488  39.3472  39.5779  39.6954
    40.1220  40.2575  40.6088  41.0641  41.0780  41.2268  42.0134  42.1955
    42.1957  42.6929  42.7878  42.9465  43.2216  43.2739  43.3076  43.5269
    43.8520  44.0330  44.1624  44.3620  44.8775  44.9190  45.0203  45.0263
    45.5730  46.0807  46.3409  46.4327  46.4776  46.4796  46.8140  47.0063
    47.1974  47.3368  47.8895  47.9450  48.0970  48.4053  48.5146  49.1935
    49.3548  49.4214  49.6342  49.6898  49.8788  50.1122  50.1509  50.3613
    50.4691  51.2922  51.4325  51.7976  51.9787  52.1211  52.3960  52.9752
    53.3305  53.5895  53.9878  54.0675  54.0995  54.1487  54.3869  54.5862
    54.7689  55.1211  55.2198  55.5506  55.7017  55.7738  55.8132  56.3419

          k = 0.3000 0.1732 0.0000 ( 14773 PWs)   bands (ev):

   -66.6513 -40.9076 -40.8307 -40.6871 -18.9937 -18.3442 -11.2053 -10.0346
    -9.8944  -8.7003  -7.4936  -7.4253  -6.9442  -3.6673  -3.5914  -2.6511
    -1.8050   1.2136   1.3882   2.3023   2.6465   3.1920   4.0276   4.3091
     5.7611   6.3056   6.7774   6.8953   7.5058   8.0981   8.9135   9.0389
     9.0560  10.0733  10.0753  11.6410  12.0478  12.0638  12.5536  12.6125
    14.3421  14.7246  15.0180  15.5151  15.8496  15.9983  16.0247  16.3915
    16.9370  17.0684  17.4130  17.7940  18.1440  18.2180  18.4965  19.1257
    19.4337  19.6346  19.7994  20.4112  21.2886  21.4078  21.4217  21.6202
    22.1091  22.2223  23.0112  23.1800  23.5537  23.7101  24.3048  24.6371
    24.9543  25.3565  25.6999  25.8393  25.9426  26.6057  26.8677  27.0829
    27.4539  27.6302  27.8313  28.1495  28.4287  28.4764  28.8821  29.3963
    29.5589  29.6900  30.2092  30.5271  30.6147  31.1625  31.2140  31.6371
    31.7444  32.2005  32.2252  32.2883  32.5670  32.6125  33.4949  33.6809
    33.7505  34.1620  34.1768  34.4517  35.0488  35.1030  35.1743  35.5949
    35.7404  36.2475  36.4276  36.6932  36.9432  37.0847  37.5537  37.5595
    37.8057  38.2212  38.4031  38.6799  39.1873  39.2000  39.6536  39.7022
    40.0014  40.4024  40.4856  40.9489  41.0310  41.2717  41.9793  42.2559
    42.3869  42.3874  42.4491  42.8949  43.3090  43.4059  43.4412  43.5551
    44.1005  44.1117  44.1249  44.3343  44.9467  45.0331  45.1878  45.1985
    45.6188  46.1019  46.3117  46.4437  46.4701  46.5370  46.7220  47.0307
    47.3934  47.4576  47.9763  48.1338  48.2814  48.3856  48.4323  49.1017
    49.2096  49.2771  49.6079  49.6093  50.0523  50.1705  50.2840  50.4788
    50.7518  51.1771  51.4794  51.7657  51.9485  52.0582  52.6258  52.9776
    52.9889  53.5977  53.7503  54.0200  54.0284  54.3355  54.5204  54.5266
    55.1821  55.3725  55.4172  55.5722  55.6763  55.7890  55.8108  56.3979

          k = 0.2875 0.1660 0.0000 ( 14787 PWs)   bands (ev):

   -66.6530 -40.8915 -40.8340 -40.6834 -19.0730 -18.3755 -11.1610  -9.9395
    -9.8857  -8.6435  -7.4930  -7.4451  -6.9050  -3.6980  -3.5711  -2.7269
    -1.8512   1.1240   1.2940   2.3856   2.7108   3.2165   3.9465   4.2038
     5.8186   6.3067   6.6466   7.0017   7.3693   7.9738   8.7463   8.8970
     8.9998  10.3422  10.3722  11.5815  11.9955  12.1118  12.7158  12.8018
    14.5268  14.7608  15.1600  15.3978  15.9255  16.0743  16.2418  16.4013
    16.9497  17.1900  17.5111  17.7548  17.9172  18.2902  18.4316  19.1879
    19.3971  19.6185  19.9142  20.4685  21.3319  21.3695  21.4841  21.6410
    22.1936  22.2913  23.1853  23.4634  23.6675  23.8906  24.4504  24.6143
    25.0066  25.2684  25.5262  25.9406  26.0388  26.6268  26.9065  27.0116
    27.2465  27.6336  27.6573  28.1679  28.2860  28.4193  28.6335  29.2606
    29.5185  29.7326  30.0792  30.2683  30.4252  31.1575  31.1878  31.4560
    31.6735  32.0878  32.1072  32.2355  32.2376  32.5696  33.4772  33.5174
    33.6169  33.9705  33.9927  34.3374  34.8795  34.9565  35.1147  35.3534
    35.5313  36.2406  36.2573  36.8542  36.8752  37.1734  37.4651  37.5510
    37.8791  38.0094  38.1463  38.4129  38.9909  39.1598  39.5961  39.7199
    39.7737  40.4637  40.5442  40.9129  41.1740  41.2988  41.8439  41.9600
    42.0298  42.3558  42.5227  42.9287  43.3257  43.4829  43.5896  43.6696
    44.0384  44.0872  44.1288  44.2192  45.1436  45.1677  45.4249  45.5240
    45.7252  45.8871  46.2553  46.3941  46.5778  46.6278  46.6701  47.0689
    47.6894  47.7177  47.9791  48.2429  48.3270  48.4300  48.5003  49.0549
    49.1232  49.2987  49.4921  49.5532  50.2098  50.2323  50.3815  50.5223
    50.6912  51.3800  51.5522  51.8897  51.9567  52.1430  52.7026  52.7479
    53.0953  53.5124  53.5232  53.7323  54.1123  54.1369  54.6796  54.7485
    55.3712  55.4080  55.4857  55.6490  55.8211  55.9340  55.9854  56.5744

          k = 0.2750 0.1588 0.0000 ( 14793 PWs)   bands (ev):

   -66.6547 -40.8749 -40.8375 -40.6795 -19.1521 -18.4069 -11.1268  -9.8720
    -9.8423  -8.5841  -7.5623  -7.3950  -6.8557  -3.7231  -3.5468  -2.8028
    -1.9008   1.0325   1.1950   2.4396   2.7862   3.2596   3.8691   4.0917
     5.8729   6.2570   6.5790   7.0762   7.2294   7.8550   8.6153   8.7414
     8.9732  10.6306  10.6850  11.5183  11.9084  12.0542  12.9381  13.0929
    14.7044  14.7563  15.3073  15.3099  16.0066  16.0213  16.4639  16.5096
    16.9606  17.3198  17.4936  17.6957  17.8242  18.3683  18.3821  19.2440
    19.3616  19.5866  20.0597  20.5421  21.1924  21.4490  21.5487  21.6299
    22.3431  22.3785  23.3650  23.7393  23.8037  24.0787  24.5760  24.6033
    25.0944  25.1624  25.3205  25.9316  26.1760  26.7456  26.9337  26.9593
    27.0045  27.4278  27.5649  28.2201  28.2295  28.3907  28.4846  28.9675
    29.5408  29.5615  30.0663  30.1713  30.2501  31.0428  31.1812  31.1932
    31.5415  31.9877  32.0164  32.0426  32.1528  32.4733  33.3415  33.3743
    33.5318  33.7270  33.8055  34.1868  34.6723  34.8211  35.0887  35.1146
    35.5086  36.1134  36.1455  36.8993  36.9342  37.1456  37.3424  37.3770
    37.8802  38.0643  38.1037  38.1864  38.7892  39.1448  39.4900  39.4904
    39.6127  40.5715  40.6610  40.8770  41.2791  41.3734  41.6163  41.6919
    41.7175  42.3717  42.5586  42.9874  43.3415  43.3463  43.6196  43.7426
    43.9232  44.0990  44.1073  44.2920  45.1054  45.4096  45.5787  45.6487
    45.7768  45.8997  46.1917  46.5343  46.6923  46.7860  46.8288  47.1455
    47.5078  47.8742  48.1459  48.3705  48.3987  48.4127  48.7511  49.0452
    49.1337  49.3838  49.4994  49.5104  50.1432  50.2308  50.3803  50.6278
    50.8204  51.5426  51.5897  51.9696  52.0122  52.5209  52.6087  52.7153
    53.1629  53.3082  53.4709  53.5207  53.7963  54.3854  54.7291  54.7334
    55.2335  55.5908  55.5978  55.7228  55.8399  56.2971  56.3271  56.8976

          k = 0.2625 0.1516 0.0000 ( 14787 PWs)   bands (ev):

   -66.6565 -40.8582 -40.8409 -40.6757 -19.2306 -18.4381 -11.1047  -9.8506
    -9.7433  -8.5226  -7.6327  -7.3440  -6.7981  -3.7418  -3.5185  -2.8776
    -1.9539   0.9404   1.0936   2.4660   2.8654   3.3123   3.8019   3.9746
     5.9166   6.1736   6.5629   7.0911   7.1036   7.7424   8.5358   8.6003
     8.9620  10.9292  11.0032  11.4515  11.8155  11.9635  13.2084  13.4007
    14.6963  14.8626  15.2638  15.4670  15.9114  16.0933  16.6283  16.6759
    16.9726  17.3631  17.4573  17.6141  17.8956  18.3596  18.4526  19.2905
    19.3463  19.5414  20.2247  20.6159  21.0385  21.5282  21.6020  21.6194
    22.4805  22.5137  23.5413  23.9656  23.9920  24.2592  24.6017  24.6694
    25.0482  25.1390  25.2032  25.8299  26.3196  26.7660  26.8886  26.9161
    26.9235  27.2213  27.5007  28.1612  28.2624  28.2915  28.5414  28.6981
    29.3344  29.4304  30.0106  30.0869  30.2502  30.8766  30.9213  31.0651
    31.3302  31.9481  31.9634  32.0014  32.0473  32.3304  33.0852  33.2169
    33.4885  33.4991  33.5725  34.0160  34.5323  34.6608  35.0024  35.0535
    35.5121  35.9321  36.1077  36.7034  36.8290  37.0545  37.2652  37.4133
    37.7299  38.0753  38.1381  38.3139  38.6229  39.1313  39.2191  39.3777
    39.4423  40.6073  40.7530  40.7580  41.1746  41.2795  41.4988  41.5972
    41.7997  42.3600  42.4978  43.0294  43.0740  43.3401  43.5177  43.6813
    43.8091  44.2043  44.3166  44.4324  44.8963  45.1587  45.6385  45.8027
    45.9119  46.0300  46.3317  46.7440  46.9006  46.9854  47.0799  47.2186
    47.3099  47.7499  48.2407  48.4020  48.4517  48.5455  49.0057  49.0794
    49.3237  49.3448  49.5644  49.8273  49.8354  50.2398  50.4333  50.8146
    51.1517  51.4075  51.5898  51.9068  52.3745  52.5592  52.7645  52.7722
    52.9623  53.2562  53.4794  53.5516  53.6008  54.4831  54.6884  54.6885
    55.2307  55.6232  55.8016  55.8185  55.8848  56.5858  56.6027  56.9705

          k = 0.2500 0.1443 0.0000 ( 14785 PWs)   bands (ev):

   -66.6583 -40.8444 -40.8412 -40.6717 -19.3081 -18.4691 -11.0960  -9.8192
    -9.6430  -8.4590  -7.7036  -7.2928  -6.7341  -3.7533  -3.4865  -2.9501
    -2.0103   0.8486   0.9918   2.4690   2.9383   3.3606   3.7535   3.8582
     5.9403   6.0936   6.5654   6.9606   7.0738   7.6365   8.4807   8.5182
     8.9663  11.2236  11.3045  11.3815  11.7443  11.8780  13.4968  13.7154
    14.5882  14.9745  15.2638  15.6307  15.8056  16.1857  16.6604  16.8375
    17.0037  17.3211  17.5299  17.6021  17.9899  18.3708  18.5432  19.3238
    19.3604  19.4925  20.3898  20.6767  20.9059  21.5711  21.6076  21.7019
    22.5938  22.6869  23.7098  24.1526  24.1877  24.3808  24.6049  24.7327
    24.9563  25.0304  25.3017  25.6710  26.4566  26.5669  26.7403  26.8917
    26.9159  27.2385  27.5331  27.9603  28.2370  28.3462  28.5123  28.5600
    29.2037  29.2271  29.9317  30.0081  30.1315  30.6782  30.7506  30.7933
    31.2860  31.7997  31.9321  31.9760  32.0196  32.2094  32.6992  33.1467
    33.2557  33.2872  33.4743  33.8414  34.4548  34.5697  34.9139  34.9978
    35.5246  35.7419  35.9926  36.4391  36.5966  37.1912  37.2095  37.3811
    37.4998  38.0077  38.2708  38.4067  38.6171  39.0128  39.1617  39.2545
    39.2928  40.2776  40.5460  40.9661  41.0029  41.3635  41.3781  41.5581
    42.0881  42.2555  42.3746  42.8789  43.0335  43.2667  43.2855  43.6871
    43.7277  44.4014  44.4350  44.4544  44.8512  44.8674  45.7149  45.8805
    45.9426  46.0057  46.4854  46.8081  47.1000  47.2101  47.2661  47.3962
    47.5347  47.5942  48.0685  48.4403  48.5327  48.6074  49.0913  49.2606
    49.3819  49.4891  49.7191  49.9242  50.1496  50.3258  50.4198  50.9451
    51.3535  51.4863  51.5928  51.9110  52.3521  52.3950  52.6855  52.8235
    52.9626  53.5234  53.5290  53.6118  53.7070  54.2989  54.6021  54.9896
    55.1912  55.6248  55.9240  55.9698  56.0096  56.5700  56.6366  56.9880

          k = 0.2375 0.1371 0.0000 ( 14779 PWs)   bands (ev):

   -66.6600 -40.8479 -40.8243 -40.6678 -19.3841 -18.4996 -11.1008  -9.7769
    -9.5416  -8.3937  -7.7745  -7.2424  -6.6659  -3.7568  -3.4511  -3.0189
    -2.0697   0.7578   0.8911   2.4522   2.9920   3.3810   3.7356   3.7607
     5.9341   6.0338   6.5721   6.8456   6.9897   7.5378   8.3882   8.5594
     8.9849  11.3085  11.4565  11.4583  11.8263  11.8616  13.7878  14.0276
    14.4555  14.9936  15.2914  15.7648  15.8002  16.2840  16.5763  16.8669
    17.0872  17.4249  17.4953  17.7532  18.0592  18.4195  18.6401  19.3402
    19.4059  19.4578  20.4905  20.7154  20.8652  21.5491  21.6872  21.8018
    22.7134  22.8564  23.8692  24.2591  24.3482  24.3554  24.6108  24.8398
    24.9529  25.0125  25.3349  25.4786  26.4559  26.4578  26.6735  26.7548
    26.8388  27.4436  27.6233  27.8147  28.0028  28.3769  28.4152  28.6140
    29.0055  29.2322  29.7800  29.8298  29.8839  30.4642  30.5057  30.8025
    31.2934  31.5490  31.8204  31.9077  32.0499  32.1426  32.3846  32.8540
    33.0808  33.1727  33.4757  33.6772  34.3849  34.5039  34.7378  35.0357
    35.5286  35.5617  35.7519  36.0818  36.6511  37.1116  37.2708  37.2735
    37.3246  37.9072  38.2405  38.3318  38.7658  39.0282  39.0712  39.2447
    39.2643  39.8866  40.3047  40.8064  41.1926  41.3002  41.5212  41.5390
    42.0110  42.2164  42.2958  42.8182  42.9931  43.1169  43.1996  43.5863
    43.6924  44.1370  44.4312  44.6529  44.9686  44.9765  45.7380  45.7969
    45.9007  45.9073  46.5400  46.7268  47.1864  47.3237  47.4765  47.6041
    47.6263  47.9506  47.9547  48.4700  48.6076  48.7350  49.0512  49.1220
    49.5437  49.8411  50.0048  50.1829  50.2398  50.4164  50.7191  50.9742
    51.5241  51.5325  51.7469  52.0445  52.0823  52.1828  52.4994  52.6836
    53.2232  53.6207  53.6443  53.8658  53.9693  54.3545  54.4873  55.1494
    55.2421  55.6418  56.0489  56.0763  56.1046  56.4617  56.5809  57.0234

          k = 0.2250 0.1299 0.0000 ( 14773 PWs)   bands (ev):

   -66.6618 -40.8513 -40.8074 -40.6639 -19.4583 -18.5294 -11.1183  -9.7236
    -9.4395  -8.3269  -7.8449  -7.1939  -6.5957  -3.7515  -3.4127  -3.0828
    -2.1320   0.6685   0.7925   2.4173   3.0146   3.3386   3.7166   3.7583
     5.8899   5.9964   6.5807   6.7521   6.8653   7.4467   8.3272   8.6456
     9.0156  11.2329  11.4070  11.4958  12.0484  12.1200  14.0567  14.2552
    14.3844  14.9129  15.3409  15.8210  15.9747  16.3882  16.4451  16.8008
    17.1422  17.5583  17.6033  17.9090  18.0848  18.5114  18.7432  19.3378
    19.4604  19.4803  20.4508  20.7282  20.9934  21.5458  21.7660  21.9210
    22.8322  23.0201  24.0185  24.1812  24.2142  24.5226  24.6449  24.9358
    25.0626  25.0815  25.2565  25.2838  26.2585  26.4760  26.5910  26.7366
    26.8005  27.6348  27.6941  27.7379  27.7529  28.2150  28.4167  28.7129
    28.9307  29.1784  29.5732  29.6010  29.6288  30.2454  30.4367  30.7682
    31.2837  31.2968  31.6096  31.7221  32.0690  32.0765  32.2649  32.5502
    32.9430  33.1725  33.4810  33.5359  34.2079  34.4242  34.6289  35.0629
    35.4022  35.5012  35.5057  35.8258  36.6849  36.9772  37.0787  37.1504
    37.4413  37.7627  38.0791  38.2599  38.8093  38.9077  39.0497  39.2398
    39.5095  39.6429  40.1026  40.5997  41.2194  41.4223  41.5288  41.6288
    41.7183  42.0385  42.3352  42.7555  42.9155  43.1032  43.1766  43.4786
    43.6980  43.7467  44.4668  44.9243  45.0623  45.1472  45.5264  45.7830
    45.8146  45.9092  46.4078  46.6306  47.2577  47.3646  47.3648  47.6748
    47.7121  48.2795  48.3149  48.4562  48.8573  48.9295  49.0371  49.1674
    49.5203  50.1913  50.1944  50.2455  50.4029  50.6914  51.1522  51.1539
    51.4411  51.6074  51.7058  51.8389  52.2661  52.2915  52.2971  52.6258
    53.2444  53.7154  53.7768  54.1671  54.2399  54.4571  54.4933  55.2041
    55.4213  55.7082  55.8902  56.2549  56.2756  56.5238  56.5598  56.7721

          k = 0.2125 0.1227 0.0000 ( 14775 PWs)   bands (ev):

   -66.6636 -40.8548 -40.7907 -40.6601 -19.5304 -18.5585 -11.1467  -9.6603
    -9.3369  -8.2590  -7.9142  -7.1483  -6.5255  -3.7368  -3.3716  -3.1406
    -2.1967   0.5813   0.6968   2.3639   3.0035   3.2325   3.7311   3.8212
     5.8081   5.9761   6.5936   6.6805   6.7159   7.3633   8.3006   8.7612
     9.0557  11.1553  11.3126  11.4249  12.3547  12.4627  14.1357  14.2191
    14.6226  14.8561  15.4263  15.9369  16.1534  16.3113  16.4984  16.6885
    17.1680  17.6739  17.7825  18.0665  18.0841  18.6525  18.8526  19.3176
    19.5172  19.5802  20.3547  20.7158  21.2042  21.5675  21.8424  22.0563
    22.9395  23.1758  24.0232  24.0696  24.1521  24.5412  24.7308  24.9199
    25.0911  25.1819  25.2153  25.2352  26.0831  26.4238  26.5783  26.5820
    26.9336  27.4979  27.6619  27.7239  27.7778  28.1111  28.4079  28.8147
    28.9138  28.9433  29.2402  29.4778  29.6308  30.0313  30.4304  30.5789
    31.0750  31.1186  31.3972  31.6427  31.9022  32.0865  32.1618  32.4214
    32.9350  33.1535  33.4284  33.4816  33.9067  34.3224  34.6054  35.0038
    35.2710  35.2851  35.4390  35.7543  36.5441  36.8278  36.9285  37.1171
    37.5261  37.5841  37.9152  38.1795  38.6579  38.7802  39.0523  39.1285
    39.6573  39.7332  40.1389  40.3826  41.0853  41.4847  41.5274  41.5971
    41.6452  41.8502  42.3153  42.5747  42.8139  43.0117  43.2393  43.4935
    43.5406  43.7301  44.4801  44.9771  45.1682  45.2230  45.4135  45.7326
    45.8865  45.9035  46.1770  46.4440  47.3107  47.3161  47.3593  47.5624
    47.6908  48.5633  48.5763  48.6441  48.9968  49.1583  49.3228  49.3248
    49.4980  50.2548  50.3438  50.4467  50.6664  50.9694  51.1150  51.4884
    51.5003  51.5378  51.6266  52.1109  52.1298  52.3401  52.4582  52.8387
    53.0820  53.9500  54.0209  54.0884  54.4076  54.4535  54.8528  55.3649
    55.5361  55.7577  55.8136  56.4147  56.4355  56.5027  56.6116  56.6295

          k = 0.2000 0.1155 0.0000 ( 14781 PWs)   bands (ev):

   -66.6653 -40.8581 -40.7742 -40.6563 -19.6000 -18.5866 -11.1838  -9.5887
    -9.2340  -8.1903  -7.9821  -7.1071  -6.4572  -3.7123  -3.3284  -3.1909
    -2.2636   0.4965   0.6046   2.2903   2.9671   3.0996   3.7749   3.9123
     5.6991   5.9644   6.5535   6.6148   6.6241   7.2878   8.3093   8.8944
     9.1023  11.0762  11.2118  11.3328  12.6889  12.8166  13.9850  14.1439
    14.8204  14.9974  15.5809  16.0674  16.1902  16.3352  16.5634  16.6148
    17.1909  17.7922  17.8313  18.1833  18.2204  18.8414  18.9681  19.2858
    19.6289  19.7019  20.2547  20.6822  21.4415  21.6176  21.9131  22.1982
    23.0220  23.3156  23.8375  23.9574  24.2468  24.4783  24.6765  24.8410
    24.9105  25.3056  25.3541  25.3544  25.9982  26.2410  26.4035  26.6458
    27.0240  27.3561  27.5289  27.6708  27.8621  28.0038  28.4232  28.7283
    28.7717  28.9000  29.1973  29.3315  29.7177  29.8353  30.2946  30.3629
    30.7467  30.9522  31.3201  31.5837  31.7198  32.0476  32.0715  32.4073
    33.0150  33.1058  33.3622  33.4719  33.5707  34.2010  34.5900  34.8953
    35.1208  35.1737  35.3206  35.8325  36.2669  36.6909  36.8155  37.1149
    37.3975  37.5622  37.7844  38.0340  38.3911  38.7066  39.0778  39.1155
    39.5209  39.9237  40.1537  40.4503  40.9160  41.3597  41.4425  41.5324
    41.6538  41.8510  42.2660  42.3280  42.7012  42.9408  43.0553  43.5952
    43.7277  43.7747  44.3215  44.8536  45.2202  45.2511  45.4336  45.7920
    45.7941  45.8997  46.1358  46.2339  47.0679  47.3528  47.3606  47.5953
    47.7059  48.4690  48.6537  48.7831  49.2526  49.4885  49.5371  49.6867
    49.7107  50.4209  50.4705  50.4817  50.8570  50.9427  50.9909  51.3854
    51.6194  51.8824  51.9338  52.2391  52.3775  52.4163  52.6128  52.9894
    53.1131  53.9094  54.1227  54.3529  54.4547  54.6161  55.0743  55.4174
    55.6051  55.8356  55.8890  56.2698  56.5399  56.6511  56.7614  56.8167

          k = 0.1875 0.1083 0.0000 ( 14787 PWs)   bands (ev):

   -66.6669 -40.8614 -40.7581 -40.6526 -19.6668 -18.6137 -11.2273  -9.5105
    -9.1309  -8.1213  -8.0480  -7.0714  -6.3925  -3.6778  -3.2834  -3.2328
    -2.3322   0.4144   0.5165   2.1943   2.9158   2.9653   3.8313   4.0143
     5.5797   5.9529   6.3857   6.5745   6.6478   7.2200   8.3515   9.0374
     9.1527  10.9963  11.1121  11.2379  13.0220  13.1705  13.8355  13.9343
    14.9286  15.2610  15.8228  16.0689  16.2030  16.4489  16.5190  16.7373
    17.2141  17.7540  17.9042  18.3601  18.4007  19.0669  19.0896  19.2561
    19.7839  19.8430  20.1635  20.6329  21.6898  21.6961  21.9728  22.3275
    23.0720  23.4160  23.6489  23.9044  24.2322  24.3517  24.6111  24.7093
    24.8161  25.3849  25.4380  25.5142  26.0382  26.0493  26.2459  26.5467
    26.9885  27.4124  27.4274  27.5320  27.7707  27.9699  28.2357  28.7258
    28.7480  28.9390  29.2016  29.3126  29.6774  29.6846  30.0623  30.1111
    30.6364  30.7374  31.2140  31.5432  31.6161  31.9752  32.0298  32.3563
    33.0069  33.0742  33.3373  33.3577  33.4508  34.0672  34.5303  34.8242
    35.0293  35.1130  35.1576  35.9414  35.9469  36.6071  36.6964  37.0482
    37.2522  37.5401  37.7048  37.7492  38.2213  38.6976  39.1219  39.1517
    39.3436  39.9140  40.0807  40.4506  41.0776  41.2739  41.2848  41.4592
    41.5338  42.0121  42.0825  42.1103  42.5915  42.9124  43.0066  43.7012
    43.8207  43.9293  43.9950  44.8318  45.1350  45.1982  45.4113  45.4986
    45.9021  46.0431  46.1154  46.1921  46.8589  47.3903  47.4072  47.4368
    47.8750  48.2337  48.6568  48.8538  49.4579  49.5879  49.9006  49.9548
    50.1135  50.4319  50.5198  50.7240  50.9253  50.9328  50.9436  51.4314
    51.6672  52.0862  52.3484  52.4974  52.6010  52.6800  52.7513  53.1239
    53.2128  53.8894  54.1281  54.6076  54.7442  54.8378  55.1056  55.2338
    55.6361  55.9009  56.1215  56.3608  56.5840  56.5942  56.7194  57.0745

          k = 0.1750 0.1010 0.0000 ( 14801 PWs)   bands (ev):

   -66.6686 -40.8645 -40.7425 -40.6491 -19.7305 -18.6395 -11.2751  -9.4275
    -9.0280  -8.1116  -8.0523  -7.0426  -6.3327  -3.6332  -3.2653  -3.2373
    -2.4019   0.3354   0.4329   2.0750   2.8419   2.8572   3.8947   4.1088
     5.4698   5.9354   6.2177   6.5265   6.6932   7.1598   8.4238   9.1851
     9.2041  10.9161  11.0165  11.1448  13.2787  13.4979  13.7083  13.7630
    14.9744  15.5379  15.9787  16.1167  16.3011  16.3665  16.7033  16.8658
    17.2373  17.6734  18.0165  18.4666  18.6484  19.2168  19.2525  19.3116
    19.9508  20.0026  20.1037  20.5748  21.8010  21.9417  22.0127  22.4093
    23.1122  23.4265  23.4744  23.9137  24.0655  24.2589  24.5418  24.5752
    24.8651  25.3572  25.4193  25.5910  25.9679  26.1204  26.1649  26.3246
    26.8351  27.2399  27.3753  27.6061  27.6270  27.9890  28.0618  28.7789
    28.7894  28.8915  29.1109  29.4023  29.4698  29.6174  29.7227  30.1095
    30.5348  30.5966  31.1214  31.5170  31.5750  31.9341  31.9675  32.1885
    32.7362  33.1121  33.3446  33.4225  33.4370  33.9356  34.4170  34.8071
    34.9670  34.9955  35.0872  35.6425  35.9803  36.5175  36.6347  36.8980
    37.1993  37.4079  37.4688  37.6812  38.1254  38.7450  39.0291  39.1940
    39.2946  39.6667  40.1212  40.2585  41.1005  41.1770  41.2668  41.4921
    41.5151  41.8444  42.0290  42.1042  42.5014  42.9515  43.0533  43.5472
    43.8440  43.8604  44.0394  44.8002  44.9519  45.0940  45.3068  45.3585
    45.9103  46.0966  46.1074  46.3536  46.8188  47.2242  47.3831  47.4064
    48.0466  48.0628  48.6471  48.9014  49.3689  49.6122  50.1548  50.2483
    50.3341  50.5146  50.6405  50.8444  50.9654  51.0826  51.2628  51.3568
    52.0006  52.0717  52.5883  52.7637  52.9290  52.9514  52.9864  53.2113
    53.3649  54.0693  54.1484  54.7189  55.0969  55.0987  55.1162  55.1527
    55.6253  55.8761  56.3089  56.4996  56.5506  56.6096  56.6747  57.2677

          k = 0.1625 0.0938 0.0000 ( 14817 PWs)   bands (ev):

   -66.6701 -40.8675 -40.7275 -40.6456 -19.7909 -18.6640 -11.3252  -9.3416
    -8.9252  -8.1724  -7.9839  -7.0219  -6.2786  -3.5792  -3.2877  -3.1905
    -2.4720   0.2595   0.3540   1.9347   2.7345   2.7962   3.9635   4.1744
     5.3928   5.9093   6.0527   6.4780   6.7493   7.1070   8.5216   9.2542
     9.3338  10.8365  10.9270  11.0551  13.2002  13.5081  13.8808  13.9178
    15.0009  15.7310  15.9346  16.2522  16.3883  16.4979  16.8858  17.0004
    17.2638  17.6487  18.1361  18.5176  18.9043  19.3036  19.3492  19.5534
    19.9622  20.1814  20.2352  20.5198  21.9290  22.0204  22.1888  22.4071
    23.1890  23.3131  23.3306  23.8234  23.9547  24.2654  24.3708  24.5569
    24.9873  25.2872  25.3154  25.3931  26.0626  26.0686  26.0846  26.1776
    26.7538  26.9211  27.2392  27.5523  27.8419  27.8792  28.0967  28.6288
    28.7582  28.7861  29.0896  29.2212  29.3661  29.6331  29.7069  30.0489
    30.4719  30.5067  31.1102  31.4995  31.5478  31.8639  31.8954  31.9575
    32.4682  33.1742  33.3682  33.3950  33.5650  33.8396  34.2878  34.7686
    34.8240  34.9286  35.0912  35.4355  35.9233  36.2844  36.6983  36.7530
    37.1200  37.2285  37.3692  37.6913  38.0521  38.7928  38.8287  39.2075
    39.3286  39.4167  40.0280  40.1317  40.9092  41.0812  41.1082  41.4584
    41.6577  41.7229  42.1210  42.2488  42.4465  43.0594  43.0986  43.1637
    43.8519  43.8896  44.0082  44.7387  44.7509  44.8049  45.3475  45.3735
    45.9207  45.9539  46.1402  46.6774  46.8398  46.9741  47.2395  47.4130
    48.0390  48.1587  48.6327  48.9235  49.1598  49.6884  50.2948  50.3080
    50.3113  50.6453  50.8305  50.8771  51.0959  51.4216  51.5882  51.7093
    52.0843  52.1997  52.5133  52.9811  53.1606  53.2945  53.3646  53.4426
    53.5172  54.2765  54.2781  54.6833  55.1643  55.2841  55.3719  55.4921
    55.5979  55.8726  56.2385  56.3925  56.6904  56.7539  56.8352  57.2105

          k = 0.1500 0.0866 0.0000 ( 14837 PWs)   bands (ev):

   -66.6716 -40.8704 -40.7131 -40.6424 -19.8478 -18.6871 -11.3762  -9.2544
    -8.8227  -8.2301  -7.9165  -7.0101  -6.2308  -3.5166  -3.2998  -3.1437
    -2.5420   0.1870   0.2802   1.7787   2.6429   2.7356   4.0369   4.1900
     5.3711   5.8749   5.8934   6.4294   6.8119   7.0613   8.6402   9.3010
     9.4809  10.7582  10.8455  10.9695  12.9384  13.3710  14.1537  14.2567
    15.0548  15.7306  15.9415  16.2264  16.5467  16.8158  17.0630  17.1409
    17.3104  17.7072  18.2678  18.5113  19.1619  19.4184  19.4862  19.7597
    19.8981  20.3643  20.4730  20.5078  21.9822  22.0762  22.3269  22.4116
    23.1324  23.2329  23.3023  23.5580  23.9662  24.2574  24.3125  24.5561
    25.0907  25.1303  25.1388  25.2730  25.7939  25.8219  26.0541  26.2392
    26.7239  26.7963  27.1403  27.4582  27.8303  28.0568  28.0649  28.3508
    28.5999  28.6377  29.0448  29.1484  29.3447  29.6871  29.7945  29.9318
    30.4271  30.5258  31.1540  31.4299  31.4847  31.6917  31.8232  31.8244
    32.3417  33.1676  33.3783  33.3880  33.6274  33.8333  34.2006  34.5816
    34.7592  34.8505  35.1180  35.3831  35.8164  36.0328  36.4966  36.7082
    37.1152  37.2612  37.3025  37.7026  37.9924  38.5381  38.9287  39.1426
    39.1693  39.2786  39.8969  40.1195  40.6967  40.9074  40.9476  41.3559
    41.6676  41.8159  42.0872  42.4316  42.6102  42.8255  43.0999  43.2022
    43.7957  43.8288  43.9083  44.5509  44.5511  44.7063  45.3477  45.4581
    45.8833  45.9268  46.1698  46.6672  46.8595  47.0366  47.0782  47.4149
    48.0289  48.0943  48.6070  48.9863  49.1773  49.6573  50.1966  50.2831
    50.3578  50.7380  50.7959  51.0255  51.5365  51.7194  51.7688  52.1286
    52.2851  52.3153  52.3985  53.1429  53.2489  53.6068  53.7471  53.7599
    53.8235  54.2387  54.5111  54.9664  55.2122  55.4190  55.4969  55.5898
    55.8437  56.0550  56.1410  56.3525  56.8919  56.9006  57.0258  57.1097

          k = 0.1375 0.0794 0.0000 ( 14841 PWs)   bands (ev):

   -66.6730 -40.8732 -40.6995 -40.6393 -19.9010 -18.7087 -11.4267  -9.1674
    -8.7207  -8.2843  -7.8508  -7.0081  -6.1895  -3.4466  -3.3017  -3.0973
    -2.6111   0.1180   0.2117   1.6141   2.5645   2.6770   4.1142   4.1471
     5.4143   5.7414   5.8336   6.3822   6.8764   7.0222   8.7750   9.3429
     9.6245  10.6820  10.7732  10.8881  12.6492  13.2312  14.3353  14.6274
    15.1911  15.6693  15.8467  16.2200  16.8065  17.0665  17.2287  17.2872
    17.4440  17.8453  18.4146  18.4733  19.4167  19.5806  19.6269  19.8359
    19.8830  20.4535  20.6768  20.7371  21.8924  22.2048  22.2372  22.5280
    23.0138  23.1875  23.2890  23.3844  23.9294  24.2492  24.3269  24.4818
    24.8715  24.9969  25.2187  25.2459  25.5060  25.5608  25.7916  26.3101
    26.5475  26.8857  27.2479  27.3026  27.6821  27.9645  28.1059  28.1403
    28.4898  28.5693  28.9473  29.2612  29.2803  29.7434  29.7745  29.8703
    30.4579  30.5593  31.1708  31.2292  31.4680  31.4816  31.7630  31.8448
    32.3512  33.0713  33.3811  33.3821  33.5448  33.9090  34.2082  34.4236
    34.5854  34.8733  35.1598  35.3753  35.6921  35.7895  36.3507  36.5527
    37.1596  37.3161  37.3959  37.6610  37.9512  38.3314  38.9320  38.9678
    39.0292  39.1427  39.8090  40.1265  40.5624  40.7520  40.7613  41.2145
    41.6002  42.0048  42.0293  42.4454  42.4718  42.9940  43.0414  43.3352
    43.5553  43.7530  43.9206  44.3682  44.3707  44.7359  45.2721  45.4496
    45.9220  45.9299  46.2186  46.3716  46.8904  46.9785  47.3745  47.4121
    47.7095  48.1600  48.5637  49.0938  49.3851  49.5759  50.0517  50.1250
    50.4326  50.7565  50.9728  51.1614  51.7553  51.7763  51.9517  52.3756
    52.5102  52.5310  52.6798  53.0243  53.4827  53.8456  54.0193  54.1545
    54.2808  54.2896  54.7217  55.2530  55.3043  55.3348  55.4455  55.9504
    56.0345  56.0529  56.4370  56.4837  56.8092  57.2049  57.2220  57.2362

          k = 0.1250 0.0722 0.0000 ( 14845 PWs)   bands (ev):

   -66.6743 -40.8757 -40.6868 -40.6364 -19.9501 -18.7287 -11.4756  -9.0821
    -8.6193  -8.3348  -7.7874  -7.0161  -6.1544  -3.3709  -3.2940  -3.0522
    -2.6785   0.0526   0.1485   1.4473   2.4965   2.6218   4.0568   4.1947
     5.5112   5.5982   5.7871   6.3385   6.9388   6.9893   8.9221   9.3786
     9.7628  10.6087  10.7113  10.8107  12.3579  13.0953  14.4069  14.9993
    15.4213  15.6006  15.6883  16.2459  17.1045  17.1730  17.3727  17.4390
    17.7289  18.0466  18.4355  18.5798  19.6506  19.7697  19.7714  19.7971
    19.8967  20.5529  20.9377  21.0168  21.7587  22.0737  22.3998  22.4083
    23.0327  23.1072  23.1851  23.3398  23.9729  24.2102  24.2706  24.3137
    24.6513  25.0207  25.0431  25.1396  25.3221  25.5056  25.5550  26.3287
    26.3691  26.8098  27.2437  27.3127  27.5103  27.8545  27.9533  27.9852
    28.4544  28.7585  28.8438  29.1880  29.3928  29.6720  29.7818  29.8372
    30.4714  30.5320  31.0702  31.1403  31.4184  31.4476  31.7168  31.9140
    32.4242  32.9463  33.3321  33.3559  33.4081  33.9764  34.2220  34.3049
    34.5305  34.9060  35.2095  35.2998  35.5745  35.5758  36.3218  36.4673
    37.0749  37.4888  37.4957  37.4992  37.9412  38.2463  38.7159  38.7374
    38.9660  39.1158  39.7440  39.9950  40.6104  40.6244  40.6262  41.0477
    41.4188  41.9625  42.1482  42.3061  42.4689  42.9219  43.0709  43.3125
    43.4088  43.8943  43.9342  44.2261  44.2372  44.8304  45.0841  45.3844
    45.9026  46.0026  46.0777  46.3281  46.8831  46.9320  47.3949  47.4474
    47.7175  48.2061  48.5107  49.1468  49.5029  49.7080  49.7701  50.1145
    50.4754  50.7134  51.2127  51.2171  51.7087  51.8277  52.1028  52.4447
    52.7113  52.8314  53.0945  53.1057  53.6345  54.0116  54.2003  54.5924
    54.6150  54.7506  54.8036  55.0672  55.3526  55.5238  55.6498  56.0360
    56.2346  56.2406  56.7131  56.7615  56.8408  57.3551  57.4247  57.4809

          k = 0.1125 0.0650 0.0000 ( 14831 PWs)   bands (ev):

   -66.6755 -40.8780 -40.6750 -40.6337 -19.9951 -18.7471 -11.5219  -8.9999
    -8.5187  -8.3813  -7.7269  -7.0342  -6.1252  -3.2914  -3.2778  -3.0088
    -2.7432  -0.0092   0.0910   1.2838   2.4370   2.5705   3.9385   4.2776
     5.4650   5.6413   5.7371   6.3014   6.9621   6.9959   9.0779   9.4075
     9.8941  10.5391  10.6603  10.7368  12.0727  12.9657  14.4119  15.2889
    15.4799  15.6406  15.6834  16.3199  17.2242  17.4060  17.4787  17.5960
    18.0711  18.2983  18.4279  18.7691  19.6942  19.8375  19.9117  19.9513
    19.9786  20.6924  21.1949  21.2985  21.5980  21.9736  22.1866  22.4999
    22.8539  23.1897  23.2044  23.2768  23.8726  24.0763  24.2686  24.2830
    24.4459  24.6929  24.8842  24.9615  25.3045  25.4522  25.7014  26.1242
    26.4019  26.4648  27.0023  27.3082  27.6576  27.7542  27.7668  27.8938
    28.4288  28.7611  29.0058  29.1172  29.5185  29.5578  29.7570  29.7911
    30.3144  30.4805  30.9995  31.1771  31.4252  31.4854  31.6870  31.9692
    32.4820  32.8558  33.1791  33.2352  33.4591  33.9541  34.1546  34.2172
    34.6268  34.9893  35.1427  35.2612  35.4126  35.4836  36.4065  36.4591
    37.0156  37.2483  37.5576  37.5706  37.9266  38.2522  38.5405  38.5900
    38.7855  39.1741  39.6560  39.7839  40.5360  40.5729  40.7268  40.8678
    41.1625  41.8944  42.0866  42.2248  42.4838  42.7723  42.9936  43.2475
    43.3788  43.9592  44.0980  44.1316  44.1710  44.7797  45.0624  45.3117
    45.8169  45.8685  46.0232  46.4863  46.6667  46.9019  47.3431  47.4909
    48.0587  48.2168  48.4741  49.1664  49.4627  49.4810  50.0295  50.1643
    50.4660  50.6616  51.1290  51.4708  51.7684  51.8880  52.0854  52.3443
    53.0919  53.1992  53.2001  53.2875  53.8365  54.2313  54.3284  54.7926
    54.8281  54.9617  55.0823  55.3357  55.3550  55.6572  55.9074  56.2081
    56.2724  56.4509  56.9708  56.9970  57.0811  57.1281  57.6406  57.7256

          k = 0.1000 0.0577 0.0000 ( 14833 PWs)   bands (ev):

   -66.6766 -40.8802 -40.6642 -40.6313 -20.0358 -18.7636 -11.5650  -8.9220
    -8.4235  -8.4191  -7.6700  -7.0620  -6.1014  -3.2545  -3.2102  -2.9677
    -2.8046  -0.0672   0.0392   1.1279   2.3846   2.5237   3.8084   4.3618
     5.3430   5.6849   5.7835   6.2768   6.9399   7.0456   9.2389   9.4295
    10.0169  10.4741  10.6200  10.6653  11.7992  12.8443  14.3897  15.1790
    15.4490  15.8985  15.9005  16.4716  17.2784  17.5318  17.6988  17.7577
    18.4066  18.4737  18.5916  18.9929  19.6520  19.7482  20.0474  20.1934
    20.1949  20.8396  21.3522  21.4285  21.5190  21.9957  22.0130  22.3693
    22.9212  23.0005  23.2183  23.2847  23.6555  24.0001  24.2518  24.2731
    24.2736  24.5027  24.6125  24.7085  25.3097  25.6227  25.8631  25.9362
    26.0694  26.3971  26.6892  27.2519  27.5406  27.6830  27.7907  27.9408
    28.3050  28.7802  29.0717  29.2618  29.4486  29.6059  29.6230  29.7665
    30.2169  30.3293  30.9800  31.2364  31.4053  31.6377  31.6705  31.9765
    32.4009  32.8461  33.1042  33.1608  33.5288  33.8335  34.0605  34.1383
    34.7503  34.9839  35.1243  35.3106  35.3164  35.4358  36.5077  36.5083
    36.9877  37.0214  37.5327  37.5687  37.7947  38.2336  38.4369  38.6609
    38.6654  39.1918  39.5479  39.5516  40.4978  40.5926  40.6846  40.6930
    41.0372  41.7993  41.8287  42.1286  42.4765  42.6197  42.9435  43.2543
    43.3526  43.9890  44.0055  44.1303  44.2735  44.5250  45.2464  45.3649
    45.6291  45.8234  45.9175  46.4351  46.6452  46.8816  47.2379  47.7161
    48.1810  48.3927  48.4810  49.1601  49.1962  49.4587  50.2150  50.2611
    50.4067  50.6986  51.0626  51.5926  51.7304  52.0319  52.1598  52.3709
    53.2475  53.2492  53.3027  53.7071  53.9142  54.5008  54.5229  54.6118
    54.9495  54.9689  55.5578  55.7459  55.7597  55.8257  55.9865  56.2205
    56.4781  56.7647  56.8285  57.0596  57.1601  57.3637  57.9750  58.0870

          k = 0.0875 0.0505 0.0000 ( 14839 PWs)   bands (ev):

   -66.6776 -40.8821 -40.6545 -40.6291 -20.0721 -18.7784 -11.6042  -8.8496
    -8.4612  -8.3209  -7.6175  -7.0990  -6.0822  -3.2260  -3.1297  -2.9298
    -2.8615  -0.1213  -0.0068   0.9833   2.3386   2.4818   3.6773   4.4461
     5.2330   5.6315   5.9131   6.2787   6.9222   7.0867   9.4017   9.4451
    10.1299  10.4145  10.5897  10.5946  11.5424  12.7331  14.3589  14.9601
    15.4120  16.0308  16.2855  16.6942  17.3692  17.5325  17.9236  17.9803
    18.5771  18.7051  18.9187  19.2550  19.6097  19.6611  20.1659  20.4147
    20.4351  20.9627  21.2707  21.3527  21.4645  22.1189  22.1367  22.2071
    22.7949  22.9557  23.1049  23.1955  23.6840  23.6965  24.1584  24.1943
    24.2375  24.3426  24.4857  24.5901  25.2701  25.5692  25.7524  25.9356
    26.0133  26.3490  26.4864  27.0871  27.3267  27.6506  27.7971  28.0156
    28.1739  28.8596  29.0165  29.3385  29.4726  29.5146  29.6981  29.7106
    30.1848  30.2111  30.9282  31.2501  31.3934  31.6606  31.8447  31.9546
    32.1930  32.9143  32.9536  33.3008  33.6087  33.6689  33.9452  34.0565
    34.7044  35.0349  35.2083  35.2895  35.3560  35.4974  36.4184  36.5881
    36.9942  37.0179  37.3687  37.5004  37.6750  38.0943  38.4249  38.6726
    38.8194  39.1652  39.3118  39.4752  40.4492  40.5058  40.5119  40.6555
    41.1227  41.4224  41.7679  41.9690  42.4400  42.4602  42.9655  43.0818
    43.4341  43.9641  44.0383  44.0794  44.1242  44.5106  45.1943  45.5537
    45.6376  45.7352  45.7726  46.3769  46.6906  46.9599  47.0787  47.9748
    48.0930  48.5380  48.6945  48.9405  49.1390  49.4791  50.1757  50.3383
    50.3885  50.8173  51.0732  51.5086  51.9700  51.9772  52.4199  52.4242
    53.1602  53.2890  53.4773  53.8101  54.1692  54.4201  54.5692  54.8473
    54.8642  55.3078  55.6925  55.9971  56.0238  56.0854  56.2540  56.3317
    56.5511  56.9441  57.0092  57.2048  57.2362  57.7704  58.2263  58.2725

          k = 0.0750 0.0433 0.0000 ( 14845 PWs)   bands (ev):

   -66.6784 -40.8838 -40.6460 -40.6272 -20.1038 -18.7913 -11.6391  -8.7841
    -8.4943  -8.2245  -7.5701  -7.1440  -6.0672  -3.1947  -3.0524  -2.9132
    -2.8954  -0.1711  -0.0469   0.8528   2.2987   2.4450   3.5527   4.5291
     5.1359   5.5779   5.9963   6.3334   6.9083   7.1190   9.4553   9.5627
    10.2315  10.3609  10.5221  10.5681  11.3084  12.6337  14.3277  14.7413
    15.3731  16.1100  16.6902  16.9054  17.4985  17.5411  18.0927  18.2526
    18.7236  18.9564  19.2705  19.4307  19.5720  19.7144  20.2448  20.6306
    20.6600  20.9912  21.1526  21.2442  21.3490  21.9000  22.3786  22.4771
    22.5876  22.6051  23.1134  23.3043  23.3591  23.6069  24.0751  24.0851
    24.1183  24.2486  24.3836  24.7327  25.1093  25.2013  25.6033  26.1233
    26.1260  26.2623  26.4445  26.9016  27.1506  27.5961  27.6554  28.0047
    28.1639  28.9023  28.9587  29.2553  29.4265  29.6072  29.7411  29.7818
    30.1765  30.1895  30.8427  31.1886  31.3933  31.6503  31.9085  31.9462
    32.1280  32.7900  33.0096  33.4855  33.5266  33.6888  33.7931  33.9802
    34.6142  35.1852  35.2023  35.3168  35.3978  35.6799  36.1761  36.6502
    37.0343  37.1784  37.1870  37.3735  37.6223  37.8933  38.4820  38.7069
    38.8733  39.1023  39.1075  39.5354  40.2033  40.3387  40.5689  40.7241
    41.0508  41.2237  41.7136  41.7668  42.3059  42.3752  42.8952  42.9893
    43.3565  43.8685  43.9303  44.0547  44.1820  44.5963  45.1267  45.3697
    45.5936  45.7211  46.0913  46.4084  46.6365  46.8807  47.1289  47.9598
    48.1908  48.6073  48.6325  49.0684  49.1285  49.4997  50.0231  50.3180
    50.5298  50.8250  51.1436  51.6531  51.9144  52.1950  52.4620  52.5400
    53.1477  53.3374  53.6255  53.7078  54.1171  54.5001  54.7037  54.7686
    55.1435  55.5407  55.6134  55.8642  56.1097  56.3594  56.5635  56.6885
    56.8903  57.1747  57.1876  57.4193  57.7194  58.0969  58.3389  58.4285

          k = 0.0625 0.0361 0.0000 ( 14863 PWs)   bands (ev):

   -66.6792 -40.8852 -40.6387 -40.6255 -20.1308 -18.8023 -11.6692  -8.7265
    -8.5225  -8.1308  -7.5285  -7.1957  -6.0556  -3.1627  -2.9807  -2.9587
    -2.8652  -0.2162  -0.0810   0.7389   2.2647   2.4136   3.4397   4.6093
     5.0523   5.5250   6.0237   6.4430   6.8978   7.1431   9.4613   9.7178
    10.3142  10.3203  10.4449  10.5535  11.1042  12.5476  14.2995  14.5362
    15.3386  16.1644  17.0461  17.1007  17.4488  17.8168  18.2633  18.5195
    18.8955  19.1575  19.3951  19.5373  19.6388  20.0366  20.2520  20.7772
    20.8266  20.8910  21.0895  21.1102  21.4290  21.6887  22.1327  22.3020
    22.7592  22.8284  22.9768  23.0884  23.3978  23.4654  23.8794  23.9361
    24.1447  24.1945  24.3774  24.7828  24.9069  24.9404  25.5236  26.1491
    26.1587  26.1925  26.5250  26.8300  27.0540  27.2982  27.6870  27.8622
    28.1996  28.8224  28.9580  29.2586  29.4276  29.4992  29.7545  30.0257
    30.2158  30.2181  30.7429  31.0776  31.4052  31.6358  31.7157  31.9424
    32.3506  32.6139  33.0705  33.4774  33.5343  33.7165  33.7604  33.9251
    34.6155  35.1250  35.3442  35.3763  35.4379  35.8537  35.9591  36.6310
    37.1029  37.1395  37.2246  37.3031  37.5949  37.7568  38.5694  38.5709
    38.7906  39.0171  39.0845  39.6937  39.9963  40.1903  40.6230  40.6515
    40.9095  41.2951  41.5629  41.6677  42.1708  42.2889  42.7142  42.9011
    43.1913  43.6479  43.9014  44.0819  44.3098  44.6840  44.9514  45.3645
    45.6735  45.7137  46.2847  46.4688  46.6611  46.6655  47.2936  47.8211
    48.2899  48.3495  48.7467  49.1490  49.3573  49.4964  49.8546  50.3740
    50.6664  50.7929  51.2546  51.8806  51.8884  52.3659  52.4569  52.4933
    53.1914  53.3880  53.7390  53.7516  53.8892  54.4013  54.7135  55.0975
    55.1371  55.2507  55.6564  56.0768  56.2544  56.6470  56.8725  56.9227
    56.9754  57.5053  57.7591  57.7981  58.1798  58.2261  58.4179  58.6352

          k = 0.0500 0.0289 0.0000 ( 14867 PWs)   bands (ev):

   -66.6798 -40.8864 -40.6326 -40.6241 -20.1530 -18.8113 -11.6942  -8.6778
    -8.5458  -8.0408  -7.4933  -7.2522  -6.0469  -3.1325  -2.9973  -2.9174
    -2.8397  -0.2557  -0.1089   0.6436   2.2366   2.3877   3.3422   4.6844
     4.9830   5.4741   6.0237   6.5723   6.8901   7.1599   9.4644   9.8623
    10.2750  10.3614  10.3952  10.5441  10.9367  12.4759  14.2759  14.3532
    15.3097  16.2048  17.1343  17.3968  17.5119  18.1572  18.4330  18.7832
    19.0792  19.2102  19.4637  19.5118  19.9946  20.1781  20.3949  20.6179
    20.7533  20.9526  21.1555  21.1688  21.5009  21.5564  21.7971  22.0580
    22.7619  22.8087  22.9758  23.2194  23.2405  23.4168  23.7825  23.8917
    24.0289  24.2116  24.2759  24.5064  24.9593  24.9797  25.4900  26.0237
    26.0330  26.0829  26.6470  26.9609  26.9940  27.0637  27.6469  27.7327
    28.2323  28.6820  28.9829  29.2878  29.3737  29.4440  29.7455  30.2509
    30.2659  30.2662  30.6797  30.9743  31.4261  31.5656  31.6176  31.9036
    32.4255  32.5626  33.0914  33.3332  33.5389  33.8177  33.8198  33.8986
    34.7246  35.0442  35.3325  35.4483  35.4770  35.8951  35.9234  36.6573
    37.0791  37.1751  37.1910  37.2368  37.5889  37.8261  38.3309  38.6539
    38.6597  38.9238  39.1823  39.7099  39.8362  40.0674  40.5086  40.7415
    40.9882  41.2453  41.4677  41.6330  42.0674  42.1920  42.5535  42.6944
    43.0019  43.4123  43.9100  44.0392  44.4562  44.7698  44.8386  45.5426
    45.6333  45.8769  46.2204  46.4336  46.5394  46.8422  47.3583  47.8077
    48.0960  48.2406  48.8652  49.1274  49.4613  49.6272  49.8049  50.4929
    50.7778  50.7892  51.3904  51.8874  52.0732  52.3021  52.4769  52.5427
    53.1322  53.4432  53.6549  53.8513  53.9128  54.3420  54.7222  54.8663
    54.9308  55.4086  55.8396  56.1310  56.4985  56.9862  57.0202  57.0748
    57.2129  57.8812  58.1160  58.2639  58.3794  58.3839  58.4753  58.7170

          k = 0.0375 0.0217 0.0000 ( 14883 PWs)   bands (ev):

   -66.6803 -40.8874 -40.6278 -40.6231 -20.1703 -18.8184 -11.7140  -8.6389
    -8.5640  -7.9570  -7.4653  -7.3108  -6.0406  -3.1063  -3.0281  -2.8649
    -2.8194  -0.2884  -0.1307   0.5683   2.2146   2.3675   3.2632   4.7517
     4.9286   5.4270   6.0161   6.6940   6.8846   7.1709   9.4656   9.9905
    10.2438  10.2754  10.4548  10.5385  10.8086  12.4196  14.2000  14.2574
    15.2870  16.2349  17.1971  17.3504  17.9188  18.5129  18.5969  19.0421
    19.1581  19.2633  19.4924  19.6501  20.0547  20.1614  20.4771  20.5634
    20.8682  20.9245  21.0966  21.2591  21.4166  21.5895  21.7093  21.9560
    22.5738  22.6311  22.7504  23.2087  23.3633  23.4793  23.6958  23.7428
    24.0677  24.2214  24.2847  24.2948  25.0448  25.1015  25.4881  25.7853
    25.9006  25.9326  26.5338  26.9451  27.0921  27.1446  27.4940  27.7813
    28.2204  28.5869  28.9611  29.2462  29.2774  29.4882  29.7238  30.2379
    30.2516  30.4952  30.7275  30.9351  31.4505  31.4861  31.6002  31.8125
    32.2294  32.6810  33.1288  33.1776  33.6478  33.8587  33.8841  33.8968
    34.8973  34.9400  35.1883  35.5140  35.5180  35.7953  36.0821  36.8360
    36.9263  36.9525  37.2863  37.3512  37.6257  37.7956  38.2721  38.5031
    38.7364  38.8339  39.2565  39.4646  39.7463  39.9756  40.6435  40.8218
    41.0656  41.0947  41.5091  41.6127  42.0026  42.0969  42.4261  42.4498
    42.8176  43.1878  43.6083  44.2565  44.6125  44.7970  44.8495  45.6042
    45.8110  46.0571  46.0788  46.2091  46.6128  46.9248  47.3255  47.8575
    47.9952  48.0738  48.9749  49.0088  49.3966  49.8622  49.9176  50.6377
    50.8194  50.8481  51.5263  51.9485  52.1619  52.1733  52.5279  52.5960
    53.0308  53.4237  53.5291  53.9182  53.9183  54.4349  54.6150  54.7173
    54.8011  55.6260  55.7935  56.4249  56.4898  57.0609  57.1816  57.3718
    57.6079  58.0164  58.1398  58.3939  58.4543  58.4671  58.7245  59.1141

          k = 0.0250 0.0144 0.0000 ( 14861 PWs)   bands (ev):

   -66.6806 -40.8881 -40.6244 -40.6223 -20.1828 -18.8235 -11.7282  -8.6106
    -8.5771  -7.8835  -7.4449  -7.3667  -6.0364  -3.0861  -3.0506  -2.8254
    -2.8046  -0.3132  -0.1464   0.5140   2.1988   2.3530   3.2051   4.8069
     4.8893   5.3869   6.0080   6.7922   6.8809   7.1775   9.4659  10.0939
    10.1996  10.2212  10.4982  10.5354  10.7172  12.3790  14.0839  14.2442
    15.2708  16.2557  17.2437  17.3144  18.3140  18.7453  18.8113  19.1664
    19.2677  19.4335  19.4981  19.8427  19.9207  19.9535  20.3007  20.7651
    20.7948  20.9151  21.0380  21.3429  21.3833  21.7377  21.8679  22.0249
    22.4082  22.4420  22.4629  22.9891  23.1641  23.3364  23.7634  23.8931
    24.1972  24.2548  24.2576  24.3746  25.0923  25.1569  25.5067  25.6101
    25.7630  25.7940  26.2180  26.9846  27.1122  27.2423  27.5997  27.8233
    28.1188  28.6095  28.8708  29.1326  29.2089  29.5633  29.6993  30.1671
    30.2035  30.7015  30.8313  30.9792  31.4727  31.4889  31.5908  31.6856
    32.0363  32.5896  33.1899  33.2072  33.7627  33.8847  33.9087  33.9134
    34.8145  34.8879  35.2559  35.5453  35.5746  35.6768  36.2962  36.6664
    36.8551  37.0765  37.3736  37.4125  37.5353  37.7303  38.3606  38.4568
    38.7580  38.7909  39.1379  39.2219  39.7643  39.9162  40.8126  40.8797
    40.8891  41.2474  41.5750  41.6082  41.9624  42.0162  42.2184  42.3414
    42.6723  42.9956  43.2797  44.4930  44.7649  44.7772  44.9133  45.5909
    45.9230  45.9992  46.1037  46.2324  46.6902  46.8519  47.3528  47.6458
    47.8309  48.2463  48.8832  49.0642  49.3055  50.0481  50.0688  50.7688
    50.8775  50.8782  51.6149  52.0574  52.1387  52.1916  52.5351  52.5944
    52.9486  53.2068  53.6728  53.7050  53.9559  54.3204  54.5167  54.8641
    54.9237  55.7249  55.7637  56.3109  56.7247  57.0594  57.2962  57.7437
    57.8387  57.9050  58.1844  58.3480  58.5331  58.8031  58.8274  59.2353

          k = 0.0125 0.0072 0.0000 ( 14871 PWs)   bands (ev):

   -66.6808 -40.8885 -40.6224 -40.6218 -20.1903 -18.8265 -11.7367  -8.5934
    -8.5850  -7.8292  -7.4324  -7.4106  -6.0340  -3.0733  -3.0643  -2.8009
    -2.7957  -0.3288  -0.1558   0.4812   2.1893   2.3442   3.1696   4.8443
     4.8657   5.3589   6.0025   6.8561   6.8789   7.1809   9.4658  10.1307
    10.1810  10.2075  10.5245  10.5338  10.6596  12.3546  14.0111  14.2363
    15.2610  16.2680  17.2737  17.2919  18.6794  18.8583  18.9084  19.3069
    19.3795  19.5648  19.6218  19.7372  19.8120  19.9161  20.2027  20.4890
    20.6707  20.7885  21.2604  21.4925  21.6584  21.8925  21.9513  22.1005
    22.2292  22.2831  22.3301  22.8062  22.8827  23.0520  23.7556  24.1848
    24.2266  24.3894  24.4025  24.4332  24.9626  25.1412  25.5370  25.6230
    25.6453  25.7199  25.9272  26.8155  27.2727  27.3181  27.7788  27.8517
    27.9874  28.7048  28.7537  29.0519  29.0978  29.6394  29.6807  30.1171
    30.1388  30.8601  30.9024  31.0670  31.4881  31.5577  31.5617  31.5985
    31.8695  32.4133  33.2456  33.3095  33.8603  33.8985  33.9220  33.9248
    34.6954  34.7581  35.4900  35.5665  35.5996  35.6109  36.3303  36.6213
    36.7940  37.2473  37.2946  37.4360  37.4360  37.8338  38.2776  38.6754
    38.7061  38.8216  38.8385  39.0936  39.8383  39.8854  40.7562  40.8987
    40.9112  41.4606  41.6133  41.6502  41.8933  41.9619  42.0312  42.3004
    42.6245  42.8593  42.9833  44.7020  44.7665  44.8879  44.9442  45.6025
    45.7868  45.8218  46.3416  46.3726  46.7545  46.7890  47.3935  47.4855
    47.5678  48.4692  48.8017  49.1229  49.2011  50.1690  50.1750  50.8554
    50.8846  50.9425  51.6360  52.1775  52.1968  52.2025  52.5239  52.5460
    52.9275  53.0299  53.4422  53.8544  53.9739  54.2384  54.3289  55.0367
    55.2037  55.6792  55.8393  56.0491  56.9355  57.0269  57.4520  57.7233
    57.9318  57.9865  58.0241  58.6623  58.7125  58.9623  59.0141  59.1892

          k = 0.0000 0.0000 0.0000 ( 14855 PWs)   bands (ev):

   -66.6809 -40.8886 -40.6217 -40.6217 -20.1928 -18.8275 -11.7396  -8.5876
    -8.5876  -7.8081  -7.4283  -7.4283  -6.0332  -3.0689  -3.0689  -2.7926
    -2.7926  -0.3341  -0.1589   0.4703   2.1861   2.3413   3.1577   4.8577
     4.8577   5.3486   6.0006   6.8782   6.8782   7.1820   9.4658  10.1159
    10.2029  10.2029  10.5333  10.5333  10.6390  12.3465  13.9863  14.2336
    15.2577  16.2720  17.2842  17.2842  18.9029  18.9029  18.9134  19.2047
    19.6170  19.6170  19.6253  19.7518  19.7681  19.7681  20.2905  20.3343
    20.6191  20.6191  21.5393  21.5393  21.7497  21.9396  21.9643  21.9643
    22.2757  22.2757  22.2995  22.7266  22.7266  22.9134  23.7420  24.1812
    24.4550  24.4550  24.4616  24.4616  24.7599  25.1737  25.5660  25.5660
    25.6930  25.6930  25.7808  26.7413  27.3466  27.3466  27.8618  27.8618
    27.9218  28.6939  28.7747  29.0224  29.0224  29.6738  29.6738  30.1007
    30.1076  30.9237  30.9237  31.1195  31.4936  31.4936  31.6147  31.6147
    31.7889  32.3250  33.2678  33.3560  33.9028  33.9028  33.9276  33.9276
    34.6421  34.7035  35.5740  35.5740  35.6233  35.6233  36.2138  36.7733
    36.7733  37.0600  37.3814  37.4588  37.4588  37.8508  38.2898  38.6875
    38.6875  38.8312  38.8312  38.9665  39.8763  39.8763  40.7040  40.9205
    40.9205  41.6169  41.6169  41.6990  41.7994  41.9428  41.9428  42.2903
    42.6772  42.8083  42.8083  44.7630  44.8051  44.9383  44.9383  45.6323
    45.7273  45.7273  46.4300  46.4300  46.7150  46.8706  47.4089  47.4217
    47.4217  48.5701  48.7742  49.1434  49.1434  50.2113  50.2113  50.8845
    50.8845  50.9726  51.6358  52.2066  52.2364  52.2364  52.5171  52.5171
    52.9537  52.9537  53.3010  53.9793  53.9793  54.2075  54.2144  55.0831
    55.4143  55.6636  55.8633  55.8633  57.0059  57.0059  57.6640  57.6870
    57.6870  58.0551  58.0551  58.8641  58.8933  59.0365  59.0767  59.1029

     Writing all to output data dir ./tmp/MoS2.save/ :
     XML data file, pseudopotentials, collected wavefunctions

     init_run     :      1.02s CPU      1.14s WALL (       1 calls)
     electrons    :    324.91s CPU    326.47s WALL (       1 calls)

     Called by init_run:
     wfcinit      :      0.00s CPU      0.00s WALL (       1 calls)
     wfcinit:atom :      0.01s CPU      0.01s WALL (      16 calls)
     wfcinit:wfcr :      4.76s CPU      4.82s WALL (      16 calls)
     potinit      :      0.06s CPU      0.11s WALL (       1 calls)
     hinit0       :      0.64s CPU      0.70s WALL (       1 calls)

     Called by electrons:
     c_bands      :    324.87s CPU    326.41s WALL (       1 calls)
     v_of_rho     :      0.02s CPU      0.03s WALL (       1 calls)
     v_h          :      0.00s CPU      0.00s WALL (       1 calls)
     v_xc         :      0.02s CPU      0.03s WALL (       1 calls)

     Called by c_bands:
     init_us_2    :      0.01s CPU      0.02s WALL (      16 calls)
     cegterg      :    277.48s CPU    278.81s WALL (      65 calls)

     Called by sum_band:

     Called by *egterg:
     cdiaghg      :    106.48s CPU    106.83s WALL (    1142 calls)
     cegterg:over :     31.69s CPU     31.82s WALL (    1126 calls)
     cegterg:upda :     18.47s CPU     18.55s WALL (    1126 calls)
     cegterg:last :     32.11s CPU     32.16s WALL (     421 calls)
     cdiaghg:chol :      1.85s CPU      1.86s WALL (    1142 calls)
     cdiaghg:inve :      1.33s CPU      1.34s WALL (    1142 calls)
     cdiaghg:para :     13.11s CPU     13.36s WALL (    2284 calls)
     h_psi        :     89.30s CPU     90.00s WALL (    1207 calls)
     g_psi        :      0.51s CPU      0.51s WALL (    1126 calls)

     Called by h_psi:
     h_psi:calbec :      2.90s CPU      2.94s WALL (    1207 calls)
     vloc_psi     :     83.45s CPU     84.04s WALL (    1207 calls)
                                        0.00s GPU  (    1207 calls)
     add_vuspsi   :      2.63s CPU      2.63s WALL (    1207 calls)

     General routines
     calbec       :      2.90s CPU      2.94s WALL (    1207 calls)
     fft          :      0.60s CPU      0.67s WALL (      11 calls)
     fftw         :     75.32s CPU     75.83s WALL (  178048 calls)
     davcio       :      0.01s CPU      0.12s WALL (      32 calls)

     Parallel routines

     PWSCF        :   5m29.13s CPU   5m41.38s WALL


   This run was terminated on:  14:43:30  19Mar2026            

=------------------------------------------------------------------------------=
   JOB DONE.
=------------------------------------------------------------------------------=
