&input
    fildyn='MoS2.dyn.xml'
    zasr='simple', 
    loto_2d=.true.,
    flfrc='MoS2.fc'
/
