
     Program PWSCF v.7.5 starts on 13Mar2026 at  1:12:10 
        Git branch: HEAD
        Last git commit: 770a0b2d12928a67048e2f3da8d10d057e52179e
        Last git commit date: Tue Aug 19 09:57:12 2025 +0000
        Last git commit subject: Merge branch 'QE-7.5-RC' into 'master'

     This program is part of the open-source Quantum ESPRESSO suite
     for quantum simulation of materials; please cite
         "P. Giannozzi et al., J. Phys.:Condens. Matter 21 395502 (2009);
         "P. Giannozzi et al., J. Phys.:Condens. Matter 29 465901 (2017);
         "P. Giannozzi et al., J. Chem. Phys. 152 154105 (2020);
          URL http://www.quantum-espresso.org", 
     in publications or presentations arising from this work. More details at
     http://www.quantum-espresso.org/quote

     Parallel version (MPI), running on    64 processors

     MPI processes distributed on     4 nodes
     243769 MiB available memory on the printing compute node when the environment starts

     Waiting for input...
     Reading input from standard input

     Current dimensions of program PWSCF are:
     Max number of different atomic species (ntypx) = 10
     Max number of k-points (npk) =  40000
     Max angular momentum in pseudopotentials (lmaxx) =  4

     R & G space division:  proc/nbgrp/npool/nimage =      64
     Subspace diagonalization in iterative solution of the eigenvalue problem:
     a serial algorithm will be used


     Parallelization info
     --------------------
     sticks:   dense  smooth     PW     G-vecs:    dense   smooth      PW
     Min          12      12      3                 1822     1822     275
     Max          13      13      4                 1852     1852     314
     Sum         769     769    223               117923   117923   18417

     Using Slab Decomposition



     bravais-lattice index     =            4
     lattice parameter (alat)  =       5.9358  a.u.
     unit-cell volume          =    1220.5221 (a.u.)^3
     number of atoms/cell      =            3
     number of atomic types    =            2
     number of electrons       =        26.00
     number of Kohn-Sham states=           13
     kinetic-energy cutoff     =      80.0000  Ry
     charge density cutoff     =     320.0000  Ry
     scf convergence threshold =      1.0E-15
     mixing beta               =       0.2000
     number of iterations used =            8  plain     mixing
     Exchange-correlation= PBESOL
                           (   1   4  10   8   0   0   0)

     celldm(1)=   5.935776  celldm(2)=   0.000000  celldm(3)=   6.738799
     celldm(4)=   0.000000  celldm(5)=   0.000000  celldm(6)=   0.000000

     crystal axes: (cart. coord. in units of alat)
               a(1) = (   1.000000   0.000000   0.000000 )  
               a(2) = (  -0.500000   0.866025   0.000000 )  
               a(3) = (   0.000000   0.000000   6.738799 )  

     reciprocal axes: (cart. coord. in units 2 pi/alat)
               b(1) = (  1.000000  0.577350 -0.000000 )  
               b(2) = (  0.000000  1.154701  0.000000 )  
               b(3) = (  0.000000 -0.000000  0.148394 )  


     PseudoPot. # 1 for Mo read from file:
     ../pseudo/Mo.pbesol.dojo.upf
     MD5 check sum: c40353276b9086539cda6b9e5a66907b
     Pseudo is Norm-conserving + core correction, Zval = 14.0
     Generated using ONCVPSP code by D. R. Hamann
     Using radial grid of 1640 points,  6 beta functions with: 
                l(1) =   0
                l(2) =   0
                l(3) =   1
                l(4) =   1
                l(5) =   2
                l(6) =   2

     PseudoPot. # 2 for S  read from file:
     ../pseudo/S.pbesol.dojo.upf
     MD5 check sum: 501737efeeef1fb1c631cda521d4e019
     Pseudo is Norm-conserving + core correction, Zval =  6.0
     Generated using ONCVPSP code by D. R. Hamann
     Using radial grid of 1146 points,  6 beta functions with: 
                l(1) =   0
                l(2) =   0
                l(3) =   1
                l(4) =   1
                l(5) =   2
                l(6) =   2

     atomic species   valence    mass     pseudopotential
     Mo               14.00    95.95000     Mo( 1.00)
     S                 6.00    32.06500     S ( 1.00)

     12 Sym. Ops. (no inversion) found


                                    s                        frac. trans.

      isym =  1     identity                                     

 cryst.   s( 1) = (     1          0          0      )
                  (     0          1          0      )
                  (     0          0          1      )

 cart.    s( 1) = (  1.0000000  0.0000000  0.0000000 )
                  (  0.0000000  1.0000000  0.0000000 )
                  (  0.0000000  0.0000000  1.0000000 )


      isym =  2     180 deg rotation - cart. axis [0,1,0]        

 cryst.   s( 2) = (    -1          0          0      )
                  (     1          1          0      )
                  (     0          0         -1      )

 cart.    s( 2) = ( -1.0000000  0.0000000  0.0000000 )
                  (  0.0000000  1.0000000  0.0000000 )
                  (  0.0000000  0.0000000 -1.0000000 )


      isym =  3     120 deg rotation - cryst. axis [0,0,1]       

 cryst.   s( 3) = (     0          1          0      )
                  (    -1         -1          0      )
                  (     0          0          1      )

 cart.    s( 3) = ( -0.5000000 -0.8660254  0.0000000 )
                  (  0.8660254 -0.5000000  0.0000000 )
                  (  0.0000000  0.0000000  1.0000000 )


      isym =  4     120 deg rotation - cryst. axis [0,0,-1]      

 cryst.   s( 4) = (    -1         -1          0      )
                  (     1          0          0      )
                  (     0          0          1      )

 cart.    s( 4) = ( -0.5000000  0.8660254  0.0000000 )
                  ( -0.8660254 -0.5000000  0.0000000 )
                  (  0.0000000  0.0000000  1.0000000 )


      isym =  5     180 deg rotation - cryst. axis [1,-1,0]      

 cryst.   s( 5) = (     0         -1          0      )
                  (    -1          0          0      )
                  (     0          0         -1      )

 cart.    s( 5) = (  0.5000000 -0.8660254  0.0000000 )
                  ( -0.8660254 -0.5000000  0.0000000 )
                  (  0.0000000  0.0000000 -1.0000000 )


      isym =  6     180 deg rotation - cryst. axis [2,1,0]       

 cryst.   s( 6) = (     1          1          0      )
                  (     0         -1          0      )
                  (     0          0         -1      )

 cart.    s( 6) = (  0.5000000  0.8660254  0.0000000 )
                  (  0.8660254 -0.5000000  0.0000000 )
                  (  0.0000000  0.0000000 -1.0000000 )


      isym =  7     inv. 180 deg rotation - cart. axis [0,0,1]   

 cryst.   s( 7) = (     1          0          0      )
                  (     0          1          0      )
                  (     0          0         -1      )

 cart.    s( 7) = (  1.0000000  0.0000000  0.0000000 )
                  (  0.0000000  1.0000000  0.0000000 )
                  (  0.0000000  0.0000000 -1.0000000 )


      isym =  8     inv. 180 deg rotation - cart. axis [1,0,0]   

 cryst.   s( 8) = (    -1          0          0      )
                  (     1          1          0      )
                  (     0          0          1      )

 cart.    s( 8) = ( -1.0000000  0.0000000  0.0000000 )
                  (  0.0000000  1.0000000  0.0000000 )
                  (  0.0000000  0.0000000  1.0000000 )


      isym =  9     inv.  60 deg rotation - cryst. axis [0,0,1]  

 cryst.   s( 9) = (    -1         -1          0      )
                  (     1          0          0      )
                  (     0          0         -1      )

 cart.    s( 9) = ( -0.5000000  0.8660254  0.0000000 )
                  ( -0.8660254 -0.5000000  0.0000000 )
                  (  0.0000000  0.0000000 -1.0000000 )


      isym = 10     inv.  60 deg rotation - cryst. axis [0,0,-1] 

 cryst.   s(10) = (     0          1          0      )
                  (    -1         -1          0      )
                  (     0          0         -1      )

 cart.    s(10) = ( -0.5000000 -0.8660254  0.0000000 )
                  (  0.8660254 -0.5000000  0.0000000 )
                  (  0.0000000  0.0000000 -1.0000000 )


      isym = 11     inv. 180 deg rotation - cryst. axis [0,1,0]  

 cryst.   s(11) = (     1          1          0      )
                  (     0         -1          0      )
                  (     0          0          1      )

 cart.    s(11) = (  0.5000000  0.8660254  0.0000000 )
                  (  0.8660254 -0.5000000  0.0000000 )
                  (  0.0000000  0.0000000  1.0000000 )


      isym = 12     inv. 180 deg rotation - cryst. axis [1,1,0]  

 cryst.   s(12) = (     0         -1          0      )
                  (    -1          0          0      )
                  (     0          0          1      )

 cart.    s(12) = (  0.5000000 -0.8660254  0.0000000 )
                  ( -0.8660254 -0.5000000  0.0000000 )
                  (  0.0000000  0.0000000  1.0000000 )


     point group D_3h (-62m)
     there are  6 classes
     the character table:

       E     2C3   3C2   s_h   2S3   3s_v 
A'_1   1.00  1.00  1.00  1.00  1.00  1.00
A'_2   1.00  1.00 -1.00  1.00  1.00 -1.00
E'     2.00 -1.00  0.00  2.00 -1.00  0.00
A''1   1.00  1.00  1.00 -1.00 -1.00 -1.00
A''2   1.00  1.00 -1.00 -1.00 -1.00  1.00
E''    2.00 -1.00  0.00 -2.00  1.00  0.00

     the symmetry operations in each class and the name of the first element:

     E        1
          identity                                               
     2C3      3    4
          120 deg rotation - cryst. axis [0,0,1]                 
     3C2      2    6    5
          180 deg rotation - cart. axis [0,1,0]                  
     s_h      7
          inv. 180 deg rotation - cart. axis [0,0,1]             
     2S3      9   10
          inv.  60 deg rotation - cryst. axis [0,0,1]            
     3s_v     8   11   12
          inv. 180 deg rotation - cart. axis [1,0,0]             

   Cartesian axes

     site n.     atom                  positions (alat units)
         1        Mo     tau(   1) = (   0.0000000   0.5773502   3.3693993  )
         2        S      tau(   2) = (   0.5000000   0.2886751   3.8653200  )
         3        S      tau(   3) = (   0.5000000   0.2886751   2.8734787  )

     Fixed atoms
     site n.  direction
         1    0   0   0
         2    0   0   1
         3    0   0   1

   Crystallographic axes

     site n.     atom                  positions (cryst. coord.)
         1        Mo     tau(   1) = (  0.3333333  0.6666666  0.5000000  )
         2        S      tau(   2) = (  0.6666667  0.3333333  0.5735918  )
         3        S      tau(   3) = (  0.6666667  0.3333333  0.4264082  )

     number of k points=    48
                       cart. coord. in units 2pi/alat
        k(    1) = (   0.0000000   0.0000000   0.0000000), wk =   0.0045351
        k(    2) = (   0.0000000   0.0549857   0.0000000), wk =   0.0272109
        k(    3) = (   0.0000000   0.1099715   0.0000000), wk =   0.0272109
        k(    4) = (   0.0000000   0.1649572   0.0000000), wk =   0.0272109
        k(    5) = (   0.0000000   0.2199430   0.0000000), wk =   0.0272109
        k(    6) = (   0.0000000   0.2749287   0.0000000), wk =   0.0272109
        k(    7) = (   0.0000000   0.3299144   0.0000000), wk =   0.0272109
        k(    8) = (   0.0000000   0.3849002   0.0000000), wk =   0.0272109
        k(    9) = (   0.0000000   0.4398859   0.0000000), wk =   0.0272109
        k(   10) = (   0.0000000   0.4948717   0.0000000), wk =   0.0272109
        k(   11) = (   0.0000000   0.5498574   0.0000000), wk =   0.0272109
        k(   12) = (   0.0476190   0.0824786   0.0000000), wk =   0.0272109
        k(   13) = (   0.0476190   0.1374643   0.0000000), wk =   0.0544218
        k(   14) = (   0.0476190   0.1924501   0.0000000), wk =   0.0544218
        k(   15) = (   0.0476190   0.2474358   0.0000000), wk =   0.0544218
        k(   16) = (   0.0476190   0.3024216   0.0000000), wk =   0.0544218
        k(   17) = (   0.0476190   0.3574073   0.0000000), wk =   0.0544218
        k(   18) = (   0.0476190   0.4123930   0.0000000), wk =   0.0544218
        k(   19) = (   0.0476190   0.4673788   0.0000000), wk =   0.0544218
        k(   20) = (   0.0476190   0.5223645   0.0000000), wk =   0.0544218
        k(   21) = (   0.0476190   0.5773503   0.0000000), wk =   0.0272109
        k(   22) = (   0.0952381   0.1649572   0.0000000), wk =   0.0272109
        k(   23) = (   0.0952381   0.2199430   0.0000000), wk =   0.0544218
        k(   24) = (   0.0952381   0.2749287   0.0000000), wk =   0.0544218
        k(   25) = (   0.0952381   0.3299144   0.0000000), wk =   0.0544218
        k(   26) = (   0.0952381   0.3849002   0.0000000), wk =   0.0544218
        k(   27) = (   0.0952381   0.4398859   0.0000000), wk =   0.0544218
        k(   28) = (   0.0952381   0.4948717   0.0000000), wk =   0.0544218
        k(   29) = (   0.0952381   0.5498574   0.0000000), wk =   0.0544218
        k(   30) = (   0.1428571   0.2474358   0.0000000), wk =   0.0272109
        k(   31) = (   0.1428571   0.3024216   0.0000000), wk =   0.0544218
        k(   32) = (   0.1428571   0.3574073   0.0000000), wk =   0.0544218
        k(   33) = (   0.1428571   0.4123930   0.0000000), wk =   0.0544218
        k(   34) = (   0.1428571   0.4673788   0.0000000), wk =   0.0544218
        k(   35) = (   0.1428571   0.5223645   0.0000000), wk =   0.0544218
        k(   36) = (   0.1428571   0.5773503   0.0000000), wk =   0.0272109
        k(   37) = (   0.1904762   0.3299144   0.0000000), wk =   0.0272109
        k(   38) = (   0.1904762   0.3849002   0.0000000), wk =   0.0544218
        k(   39) = (   0.1904762   0.4398859   0.0000000), wk =   0.0544218
        k(   40) = (   0.1904762   0.4948717   0.0000000), wk =   0.0544218
        k(   41) = (   0.1904762   0.5498574   0.0000000), wk =   0.0544218
        k(   42) = (   0.2380952   0.4123930   0.0000000), wk =   0.0272109
        k(   43) = (   0.2380952   0.4673788   0.0000000), wk =   0.0544218
        k(   44) = (   0.2380952   0.5223645   0.0000000), wk =   0.0544218
        k(   45) = (   0.2380952   0.5773503   0.0000000), wk =   0.0272109
        k(   46) = (   0.2857143   0.4948717   0.0000000), wk =   0.0272109
        k(   47) = (   0.2857143   0.5498574   0.0000000), wk =   0.0544218
        k(   48) = (   0.3333333   0.5773503   0.0000000), wk =   0.0090703

                       cryst. coord.
        k(    1) = (   0.0000000   0.0000000   0.0000000), wk =   0.0045351
        k(    2) = (   0.0000000   0.0476190   0.0000000), wk =   0.0272109
        k(    3) = (   0.0000000   0.0952381   0.0000000), wk =   0.0272109
        k(    4) = (   0.0000000   0.1428571   0.0000000), wk =   0.0272109
        k(    5) = (   0.0000000   0.1904762   0.0000000), wk =   0.0272109
        k(    6) = (   0.0000000   0.2380952   0.0000000), wk =   0.0272109
        k(    7) = (   0.0000000   0.2857143   0.0000000), wk =   0.0272109
        k(    8) = (   0.0000000   0.3333333   0.0000000), wk =   0.0272109
        k(    9) = (   0.0000000   0.3809524   0.0000000), wk =   0.0272109
        k(   10) = (   0.0000000   0.4285714   0.0000000), wk =   0.0272109
        k(   11) = (   0.0000000   0.4761905   0.0000000), wk =   0.0272109
        k(   12) = (   0.0476190   0.0476190   0.0000000), wk =   0.0272109
        k(   13) = (   0.0476190   0.0952381   0.0000000), wk =   0.0544218
        k(   14) = (   0.0476190   0.1428571   0.0000000), wk =   0.0544218
        k(   15) = (   0.0476190   0.1904762   0.0000000), wk =   0.0544218
        k(   16) = (   0.0476190   0.2380952   0.0000000), wk =   0.0544218
        k(   17) = (   0.0476190   0.2857143   0.0000000), wk =   0.0544218
        k(   18) = (   0.0476190   0.3333333   0.0000000), wk =   0.0544218
        k(   19) = (   0.0476190   0.3809524   0.0000000), wk =   0.0544218
        k(   20) = (   0.0476190   0.4285714   0.0000000), wk =   0.0544218
        k(   21) = (   0.0476190   0.4761905   0.0000000), wk =   0.0272109
        k(   22) = (   0.0952381   0.0952381   0.0000000), wk =   0.0272109
        k(   23) = (   0.0952381   0.1428571   0.0000000), wk =   0.0544218
        k(   24) = (   0.0952381   0.1904762   0.0000000), wk =   0.0544218
        k(   25) = (   0.0952381   0.2380952   0.0000000), wk =   0.0544218
        k(   26) = (   0.0952381   0.2857143   0.0000000), wk =   0.0544218
        k(   27) = (   0.0952381   0.3333333   0.0000000), wk =   0.0544218
        k(   28) = (   0.0952381   0.3809524   0.0000000), wk =   0.0544218
        k(   29) = (   0.0952381   0.4285714   0.0000000), wk =   0.0544218
        k(   30) = (   0.1428571   0.1428571   0.0000000), wk =   0.0272109
        k(   31) = (   0.1428571   0.1904762   0.0000000), wk =   0.0544218
        k(   32) = (   0.1428571   0.2380952   0.0000000), wk =   0.0544218
        k(   33) = (   0.1428571   0.2857143   0.0000000), wk =   0.0544218
        k(   34) = (   0.1428571   0.3333333   0.0000000), wk =   0.0544218
        k(   35) = (   0.1428571   0.3809524   0.0000000), wk =   0.0544218
        k(   36) = (   0.1428571   0.4285714   0.0000000), wk =   0.0272109
        k(   37) = (   0.1904762   0.1904762   0.0000000), wk =   0.0272109
        k(   38) = (   0.1904762   0.2380952   0.0000000), wk =   0.0544218
        k(   39) = (   0.1904762   0.2857143   0.0000000), wk =   0.0544218
        k(   40) = (   0.1904762   0.3333333   0.0000000), wk =   0.0544218
        k(   41) = (   0.1904762   0.3809524   0.0000000), wk =   0.0544218
        k(   42) = (   0.2380952   0.2380952   0.0000000), wk =   0.0272109
        k(   43) = (   0.2380952   0.2857143   0.0000000), wk =   0.0544218
        k(   44) = (   0.2380952   0.3333333   0.0000000), wk =   0.0544218
        k(   45) = (   0.2380952   0.3809524   0.0000000), wk =   0.0272109
        k(   46) = (   0.2857143   0.2857143   0.0000000), wk =   0.0272109
        k(   47) = (   0.2857143   0.3333333   0.0000000), wk =   0.0544218
        k(   48) = (   0.3333333   0.3333333   0.0000000), wk =   0.0090703

     Dense  grid:   117923 G-vectors     FFT dimensions: (  36,  36, 240)

     Dynamical RAM for                 wfc:       0.05 MB

     Dynamical RAM for     wfc (w. buffer):       2.24 MB

     Dynamical RAM for           str. fact:       0.06 MB

     Dynamical RAM for           local pot:       0.00 MB

     Dynamical RAM for          nlocal pot:       0.19 MB

     Dynamical RAM for                qrad:       2.87 MB

     Dynamical RAM for          rho,v,vnew:       0.20 MB

     Dynamical RAM for               rhoin:       0.07 MB

     Dynamical RAM for            rho*nmix:       0.45 MB

     Dynamical RAM for           G-vectors:       0.12 MB

     Dynamical RAM for          h,s,v(r/c):       0.03 MB

     Dynamical RAM for          <psi|beta>:       0.01 MB

     Dynamical RAM for                 psi:       0.09 MB

     Dynamical RAM for                hpsi:       0.09 MB

     Dynamical RAM for      wfcinit/wfcrot:       0.10 MB

     Estimated static dynamical RAM per process >       6.03 MB

     Estimated max dynamical RAM per process >       6.70 MB

     Estimated total dynamical RAM >     428.87 MB
 ----2D----2D----2D----2D----2D----2D----2D----2D----2D----2D----2D----2D
  The code is running with the 2D cutoff
  Please refer to:
  Sohier, T., Calandra, M., & Mauri, F. (2017), 
  Density functional perturbation theory for gated two-dimensional heterostructures:
  Theoretical developments and application to flexural phonons in graphene.
  Physical Review B, 96(7), 75448. https://doi.org/10.1103/PhysRevB.96.075448
 ----2D----2D----2D----2D----2D----2D----2D----2D----2D----2D----2D----2D

     The initial density is read from file :
     ./tmp/MoS2.save/charge-density

     Starting wfcs are   18 randomized atomic wfcs

     total cpu time spent up to now is        2.0 secs

     per-process dynamical memory:    61.3 Mb

     Self-consistent Calculation

     iteration #  1     ecut=    80.00 Ry     beta= 0.20
     Davidson diagonalization with overlap

---- Real-time Memory Report at c_bands before calling an iterative solver
            76 MiB given to the printing process from OS
            59 MiB allocation reported by mallinfo(arena+hblkhd)
        243532 MiB available memory on the node where the printing process lives
------------------
     ethr =  1.00E-05,  avg # of iterations = 11.4

     Threshold (ethr) on eigenvalues was too large:
     Diagonalizing with lowered threshold

     Davidson diagonalization with overlap

---- Real-time Memory Report at c_bands before calling an iterative solver
            77 MiB given to the printing process from OS
            60 MiB allocation reported by mallinfo(arena+hblkhd)
        243533 MiB available memory on the node where the printing process lives
------------------
     ethr =  2.48E-08,  avg # of iterations = 10.9

     total cpu time spent up to now is        7.8 secs

     total energy              =    -184.83183561 Ry
     estimated scf accuracy    <          3.6E-09 Ry

     iteration #  2     ecut=    80.00 Ry     beta= 0.20
     Davidson diagonalization with overlap

---- Real-time Memory Report at c_bands before calling an iterative solver
            78 MiB given to the printing process from OS
            60 MiB allocation reported by mallinfo(arena+hblkhd)
        243526 MiB available memory on the node where the printing process lives
------------------
     ethr =  1.38E-11,  avg # of iterations = 13.2

     total cpu time spent up to now is       11.0 secs

     total energy              =    -184.83183574 Ry
     estimated scf accuracy    <          3.9E-09 Ry

     iteration #  3     ecut=    80.00 Ry     beta= 0.20
     Davidson diagonalization with overlap

---- Real-time Memory Report at c_bands before calling an iterative solver
            79 MiB given to the printing process from OS
            60 MiB allocation reported by mallinfo(arena+hblkhd)
        243526 MiB available memory on the node where the printing process lives
------------------
     ethr =  1.38E-11,  avg # of iterations =  1.6

     total cpu time spent up to now is       11.9 secs

     total energy              =    -184.83183574 Ry
     estimated scf accuracy    <          1.5E-09 Ry

     iteration #  4     ecut=    80.00 Ry     beta= 0.20
     Davidson diagonalization with overlap

---- Real-time Memory Report at c_bands before calling an iterative solver
            79 MiB given to the printing process from OS
            60 MiB allocation reported by mallinfo(arena+hblkhd)
        243520 MiB available memory on the node where the printing process lives
------------------
     ethr =  5.63E-12,  avg # of iterations =  4.6

     total cpu time spent up to now is       13.2 secs

     total energy              =    -184.83183574 Ry
     estimated scf accuracy    <          7.2E-11 Ry

     iteration #  5     ecut=    80.00 Ry     beta= 0.20
     Davidson diagonalization with overlap

---- Real-time Memory Report at c_bands before calling an iterative solver
            79 MiB given to the printing process from OS
            60 MiB allocation reported by mallinfo(arena+hblkhd)
        243519 MiB available memory on the node where the printing process lives
------------------
     ethr =  2.78E-13,  avg # of iterations =  4.8

     total cpu time spent up to now is       14.6 secs

     total energy              =    -184.83183574 Ry
     estimated scf accuracy    <          3.3E-11 Ry

     iteration #  6     ecut=    80.00 Ry     beta= 0.20
     Davidson diagonalization with overlap

---- Real-time Memory Report at c_bands before calling an iterative solver
            79 MiB given to the printing process from OS
            60 MiB allocation reported by mallinfo(arena+hblkhd)
        243519 MiB available memory on the node where the printing process lives
------------------
     ethr =  1.26E-13,  avg # of iterations =  4.3

     total cpu time spent up to now is       15.8 secs

     total energy              =    -184.83183574 Ry
     estimated scf accuracy    <          4.8E-11 Ry

     iteration #  7     ecut=    80.00 Ry     beta= 0.20
     Davidson diagonalization with overlap

---- Real-time Memory Report at c_bands before calling an iterative solver
            79 MiB given to the printing process from OS
            60 MiB allocation reported by mallinfo(arena+hblkhd)
        243517 MiB available memory on the node where the printing process lives
------------------
     ethr =  1.26E-13,  avg # of iterations =  1.0

     total cpu time spent up to now is       16.7 secs

     total energy              =    -184.83183574 Ry
     estimated scf accuracy    <          4.0E-11 Ry

     iteration #  8     ecut=    80.00 Ry     beta= 0.20
     Davidson diagonalization with overlap

---- Real-time Memory Report at c_bands before calling an iterative solver
            79 MiB given to the printing process from OS
            61 MiB allocation reported by mallinfo(arena+hblkhd)
        243517 MiB available memory on the node where the printing process lives
------------------
     ethr =  1.26E-13,  avg # of iterations =  1.0

     total cpu time spent up to now is       17.6 secs

     total energy              =    -184.83183574 Ry
     estimated scf accuracy    <          3.3E-11 Ry

     iteration #  9     ecut=    80.00 Ry     beta= 0.20
     Davidson diagonalization with overlap

---- Real-time Memory Report at c_bands before calling an iterative solver
            79 MiB given to the printing process from OS
            61 MiB allocation reported by mallinfo(arena+hblkhd)
        243517 MiB available memory on the node where the printing process lives
------------------
     ethr =  1.26E-13,  avg # of iterations =  1.0

     total cpu time spent up to now is       18.4 secs

     total energy              =    -184.83183574 Ry
     estimated scf accuracy    <          2.5E-11 Ry

     iteration # 10     ecut=    80.00 Ry     beta= 0.20
     Davidson diagonalization with overlap

---- Real-time Memory Report at c_bands before calling an iterative solver
            80 MiB given to the printing process from OS
            61 MiB allocation reported by mallinfo(arena+hblkhd)
        243517 MiB available memory on the node where the printing process lives
------------------
     ethr =  1.00E-13,  avg # of iterations =  1.0

     total cpu time spent up to now is       19.3 secs

     total energy              =    -184.83183574 Ry
     estimated scf accuracy    <          1.4E-11 Ry

     iteration # 11     ecut=    80.00 Ry     beta= 0.20
     Davidson diagonalization with overlap

---- Real-time Memory Report at c_bands before calling an iterative solver
            80 MiB given to the printing process from OS
            61 MiB allocation reported by mallinfo(arena+hblkhd)
        243515 MiB available memory on the node where the printing process lives
------------------
     ethr =  1.00E-13,  avg # of iterations =  4.3

     total cpu time spent up to now is       20.7 secs

     total energy              =    -184.83183574 Ry
     estimated scf accuracy    <          1.4E-11 Ry

     iteration # 12     ecut=    80.00 Ry     beta= 0.20
     Davidson diagonalization with overlap

---- Real-time Memory Report at c_bands before calling an iterative solver
            80 MiB given to the printing process from OS
            61 MiB allocation reported by mallinfo(arena+hblkhd)
        243515 MiB available memory on the node where the printing process lives
------------------
     ethr =  1.00E-13,  avg # of iterations =  1.0

     total cpu time spent up to now is       21.5 secs

     total energy              =    -184.83183574 Ry
     estimated scf accuracy    <          1.1E-11 Ry

     iteration # 13     ecut=    80.00 Ry     beta= 0.20
     Davidson diagonalization with overlap

---- Real-time Memory Report at c_bands before calling an iterative solver
            80 MiB given to the printing process from OS
            61 MiB allocation reported by mallinfo(arena+hblkhd)
        243516 MiB available memory on the node where the printing process lives
------------------
     ethr =  1.00E-13,  avg # of iterations =  1.5

     total cpu time spent up to now is       22.5 secs

     total energy              =    -184.83183574 Ry
     estimated scf accuracy    <          2.9E-11 Ry

     iteration # 14     ecut=    80.00 Ry     beta= 0.20
     Davidson diagonalization with overlap

---- Real-time Memory Report at c_bands before calling an iterative solver
            80 MiB given to the printing process from OS
            61 MiB allocation reported by mallinfo(arena+hblkhd)
        243516 MiB available memory on the node where the printing process lives
------------------
     ethr =  1.00E-13,  avg # of iterations =  3.3

     total cpu time spent up to now is       23.6 secs

     total energy              =    -184.83183574 Ry
     estimated scf accuracy    <          8.2E-11 Ry

     iteration # 15     ecut=    80.00 Ry     beta= 0.20
     Davidson diagonalization with overlap

---- Real-time Memory Report at c_bands before calling an iterative solver
            80 MiB given to the printing process from OS
            61 MiB allocation reported by mallinfo(arena+hblkhd)
        243516 MiB available memory on the node where the printing process lives
------------------
     ethr =  1.00E-13,  avg # of iterations =  1.0

     total cpu time spent up to now is       24.4 secs

     total energy              =    -184.83183574 Ry
     estimated scf accuracy    <          8.5E-11 Ry

     iteration # 16     ecut=    80.00 Ry     beta= 0.20
     Davidson diagonalization with overlap

---- Real-time Memory Report at c_bands before calling an iterative solver
            80 MiB given to the printing process from OS
            61 MiB allocation reported by mallinfo(arena+hblkhd)
        243516 MiB available memory on the node where the printing process lives
------------------
     ethr =  1.00E-13,  avg # of iterations =  1.5

     total cpu time spent up to now is       25.4 secs

     total energy              =    -184.83183574 Ry
     estimated scf accuracy    <          6.1E-11 Ry

     iteration # 17     ecut=    80.00 Ry     beta= 0.20
     Davidson diagonalization with overlap

---- Real-time Memory Report at c_bands before calling an iterative solver
            80 MiB given to the printing process from OS
            61 MiB allocation reported by mallinfo(arena+hblkhd)
        243516 MiB available memory on the node where the printing process lives
------------------
     ethr =  1.00E-13,  avg # of iterations =  1.1

     total cpu time spent up to now is       26.2 secs

     total energy              =    -184.83183574 Ry
     estimated scf accuracy    <          4.5E-11 Ry

     iteration # 18     ecut=    80.00 Ry     beta= 0.20
     Davidson diagonalization with overlap

---- Real-time Memory Report at c_bands before calling an iterative solver
            80 MiB given to the printing process from OS
            61 MiB allocation reported by mallinfo(arena+hblkhd)
        243516 MiB available memory on the node where the printing process lives
------------------
     ethr =  1.00E-13,  avg # of iterations =  3.6

     total cpu time spent up to now is       27.4 secs

     total energy              =    -184.83183574 Ry
     estimated scf accuracy    <          4.2E-12 Ry

     iteration # 19     ecut=    80.00 Ry     beta= 0.20
     Davidson diagonalization with overlap

---- Real-time Memory Report at c_bands before calling an iterative solver
            80 MiB given to the printing process from OS
            61 MiB allocation reported by mallinfo(arena+hblkhd)
        243516 MiB available memory on the node where the printing process lives
------------------
     ethr =  1.00E-13,  avg # of iterations =  1.0

     total cpu time spent up to now is       28.3 secs

     total energy              =    -184.83183574 Ry
     estimated scf accuracy    <          6.0E-12 Ry

     iteration # 20     ecut=    80.00 Ry     beta= 0.20
     Davidson diagonalization with overlap

---- Real-time Memory Report at c_bands before calling an iterative solver
            80 MiB given to the printing process from OS
            61 MiB allocation reported by mallinfo(arena+hblkhd)
        243514 MiB available memory on the node where the printing process lives
------------------
     ethr =  1.00E-13,  avg # of iterations =  1.0

     total cpu time spent up to now is       29.2 secs

     total energy              =    -184.83183574 Ry
     estimated scf accuracy    <          8.3E-12 Ry

     iteration # 21     ecut=    80.00 Ry     beta= 0.20
     Davidson diagonalization with overlap

---- Real-time Memory Report at c_bands before calling an iterative solver
            80 MiB given to the printing process from OS
            61 MiB allocation reported by mallinfo(arena+hblkhd)
        243515 MiB available memory on the node where the printing process lives
------------------
     ethr =  1.00E-13,  avg # of iterations =  1.0

     total cpu time spent up to now is       30.1 secs

     total energy              =    -184.83183574 Ry
     estimated scf accuracy    <          7.1E-12 Ry

     iteration # 22     ecut=    80.00 Ry     beta= 0.20
     Davidson diagonalization with overlap

---- Real-time Memory Report at c_bands before calling an iterative solver
            80 MiB given to the printing process from OS
            61 MiB allocation reported by mallinfo(arena+hblkhd)
        243515 MiB available memory on the node where the printing process lives
------------------
     ethr =  1.00E-13,  avg # of iterations =  1.0

     total cpu time spent up to now is       30.9 secs

     total energy              =    -184.83183574 Ry
     estimated scf accuracy    <          2.5E-12 Ry

     iteration # 23     ecut=    80.00 Ry     beta= 0.20
     Davidson diagonalization with overlap

---- Real-time Memory Report at c_bands before calling an iterative solver
            80 MiB given to the printing process from OS
            61 MiB allocation reported by mallinfo(arena+hblkhd)
        243515 MiB available memory on the node where the printing process lives
------------------
     ethr =  1.00E-13,  avg # of iterations =  1.0

     total cpu time spent up to now is       31.8 secs

     total energy              =    -184.83183574 Ry
     estimated scf accuracy    <          3.2E-12 Ry

     iteration # 24     ecut=    80.00 Ry     beta= 0.20
     Davidson diagonalization with overlap

---- Real-time Memory Report at c_bands before calling an iterative solver
            80 MiB given to the printing process from OS
            61 MiB allocation reported by mallinfo(arena+hblkhd)
        243514 MiB available memory on the node where the printing process lives
------------------
     ethr =  1.00E-13,  avg # of iterations =  1.0

     total cpu time spent up to now is       32.7 secs

     total energy              =    -184.83183574 Ry
     estimated scf accuracy    <          3.4E-12 Ry

     iteration # 25     ecut=    80.00 Ry     beta= 0.20
     Davidson diagonalization with overlap

---- Real-time Memory Report at c_bands before calling an iterative solver
            80 MiB given to the printing process from OS
            61 MiB allocation reported by mallinfo(arena+hblkhd)
        243515 MiB available memory on the node where the printing process lives
------------------
     ethr =  1.00E-13,  avg # of iterations =  1.0

     total cpu time spent up to now is       33.6 secs

     total energy              =    -184.83183574 Ry
     estimated scf accuracy    <          2.0E-12 Ry

     iteration # 26     ecut=    80.00 Ry     beta= 0.20
     Davidson diagonalization with overlap

---- Real-time Memory Report at c_bands before calling an iterative solver
            80 MiB given to the printing process from OS
            61 MiB allocation reported by mallinfo(arena+hblkhd)
        243515 MiB available memory on the node where the printing process lives
------------------
     ethr =  1.00E-13,  avg # of iterations =  1.0

     total cpu time spent up to now is       34.4 secs

     total energy              =    -184.83183574 Ry
     estimated scf accuracy    <          1.6E-13 Ry

     iteration # 27     ecut=    80.00 Ry     beta= 0.20
     Davidson diagonalization with overlap

---- Real-time Memory Report at c_bands before calling an iterative solver
            80 MiB given to the printing process from OS
            61 MiB allocation reported by mallinfo(arena+hblkhd)
        243514 MiB available memory on the node where the printing process lives
------------------
     ethr =  1.00E-13,  avg # of iterations =  1.0

     total cpu time spent up to now is       35.3 secs

     total energy              =    -184.83183574 Ry
     estimated scf accuracy    <          3.8E-14 Ry

     iteration # 28     ecut=    80.00 Ry     beta= 0.20
     Davidson diagonalization with overlap

---- Real-time Memory Report at c_bands before calling an iterative solver
            80 MiB given to the printing process from OS
            61 MiB allocation reported by mallinfo(arena+hblkhd)
        243514 MiB available memory on the node where the printing process lives
------------------
     ethr =  1.00E-13,  avg # of iterations =  1.0

     total cpu time spent up to now is       36.2 secs

     total energy              =    -184.83183574 Ry
     estimated scf accuracy    <          3.0E-14 Ry

     iteration # 29     ecut=    80.00 Ry     beta= 0.20
     Davidson diagonalization with overlap

---- Real-time Memory Report at c_bands before calling an iterative solver
            80 MiB given to the printing process from OS
            61 MiB allocation reported by mallinfo(arena+hblkhd)
        243514 MiB available memory on the node where the printing process lives
------------------
     ethr =  1.00E-13,  avg # of iterations =  1.0

     total cpu time spent up to now is       37.0 secs

     total energy              =    -184.83183574 Ry
     estimated scf accuracy    <          2.3E-15 Ry

     iteration # 30     ecut=    80.00 Ry     beta= 0.20
     Davidson diagonalization with overlap

---- Real-time Memory Report at c_bands before calling an iterative solver
            80 MiB given to the printing process from OS
            61 MiB allocation reported by mallinfo(arena+hblkhd)
        243514 MiB available memory on the node where the printing process lives
------------------
     ethr =  1.00E-13,  avg # of iterations =  1.0

     total cpu time spent up to now is       37.9 secs

     total energy              =    -184.83183574 Ry
     estimated scf accuracy    <          1.5E-15 Ry

     iteration # 31     ecut=    80.00 Ry     beta= 0.20
     Davidson diagonalization with overlap

---- Real-time Memory Report at c_bands before calling an iterative solver
            80 MiB given to the printing process from OS
            61 MiB allocation reported by mallinfo(arena+hblkhd)
        243515 MiB available memory on the node where the printing process lives
------------------
     ethr =  1.00E-13,  avg # of iterations =  1.0

     total cpu time spent up to now is       38.8 secs

     total energy              =    -184.83183574 Ry
     estimated scf accuracy    <          5.4E-15 Ry

     iteration # 32     ecut=    80.00 Ry     beta= 0.20
     Davidson diagonalization with overlap

---- Real-time Memory Report at c_bands before calling an iterative solver
            80 MiB given to the printing process from OS
            61 MiB allocation reported by mallinfo(arena+hblkhd)
        243515 MiB available memory on the node where the printing process lives
------------------
     ethr =  1.00E-13,  avg # of iterations =  1.0

     total cpu time spent up to now is       39.7 secs

     total energy              =    -184.83183574 Ry
     estimated scf accuracy    <          2.3E-15 Ry

     iteration # 33     ecut=    80.00 Ry     beta= 0.20
     Davidson diagonalization with overlap

---- Real-time Memory Report at c_bands before calling an iterative solver
            80 MiB given to the printing process from OS
            61 MiB allocation reported by mallinfo(arena+hblkhd)
        243515 MiB available memory on the node where the printing process lives
------------------
     ethr =  1.00E-13,  avg # of iterations =  1.0

     total cpu time spent up to now is       40.6 secs

     End of self-consistent calculation

          k = 0.0000 0.0000 0.0000 ( 14855 PWs)   bands (ev):

   -66.6809 -40.8886 -40.6217 -40.6217 -20.1928 -18.8275 -11.7396  -8.5876
    -8.5876  -7.8081  -7.4283  -7.4283  -6.0332

     occupation numbers 
     1.0000   1.0000   1.0000   1.0000   1.0000   1.0000   1.0000   1.0000
     1.0000   1.0000   1.0000   1.0000   1.0000

          k = 0.0000 0.0550 0.0000 ( 14871 PWs)   bands (ev):

   -66.6799 -40.8866 -40.6316 -40.6239 -20.1567 -18.8128 -11.6984  -8.6696
    -8.5497  -8.0243  -7.4874  -7.2634  -6.0455

     occupation numbers 
     1.0000   1.0000   1.0000   1.0000   1.0000   1.0000   1.0000   1.0000
     1.0000   1.0000   1.0000   1.0000   1.0000

          k = 0.0000 0.1100 0.0000 ( 14837 PWs)   bands (ev):

   -66.6770 -40.8809 -40.6604 -40.6304 -20.0502 -18.7695 -11.5804  -8.8937
    -8.4384  -8.3815  -7.6495  -7.0751  -6.0936

     occupation numbers 
     1.0000   1.0000   1.0000   1.0000   1.0000   1.0000   1.0000   1.0000
     1.0000   1.0000   1.0000   1.0000   1.0000

          k = 0.0000 0.1650 0.0000 ( 14831 PWs)   bands (ev):

   -66.6724 -40.8720 -40.7052 -40.6406 -19.8787 -18.6997 -11.4052  -9.2046
    -8.7644  -8.2615  -7.8787  -7.0078  -6.2064

     occupation numbers 
     1.0000   1.0000   1.0000   1.0000   1.0000   1.0000   1.0000   1.0000
     1.0000   1.0000   1.0000   1.0000   1.0000

          k = 0.0000 0.2199 0.0000 ( 14787 PWs)   bands (ev):

   -66.6665 -40.8606 -40.7619 -40.6535 -19.6511 -18.6073 -11.2165  -9.5296
    -9.1555  -8.1377  -8.0325  -7.0793  -6.4076

     occupation numbers 
     1.0000   1.0000   1.0000   1.0000   1.0000   1.0000   1.0000   1.0000
     1.0000   1.0000   1.0000   1.0000   1.0000

          k = 0.0000 0.2749 0.0000 ( 14779 PWs)   bands (ev):

   -66.6600 -40.8477 -40.8251 -40.6680 -19.3805 -18.4982 -11.1003  -9.7792
    -9.5465  -8.3968  -7.7711  -7.2448  -6.6692

     occupation numbers 
     1.0000   1.0000   1.0000   1.0000   1.0000   1.0000   1.0000   1.0000
     1.0000   1.0000   1.0000   1.0000   1.0000

          k = 0.0000 0.3299 0.0000 ( 14783 PWs)   bands (ev):

   -66.6532 -40.8891 -40.8345 -40.6828 -19.0843 -18.3800 -11.1554  -9.9258
    -9.8841  -8.6351  -7.5028  -7.4380  -6.8985

     occupation numbers 
     1.0000   1.0000   1.0000   1.0000   1.0000   1.0000   1.0000   1.0000
     1.0000   1.0000   1.0000   1.0000   1.0000

          k = 0.0000 0.3849 0.0000 ( 14740 PWs)   bands (ev):

   -66.6469 -40.9483 -40.8222 -40.6966 -18.7854 -18.2629 -11.3558 -10.2744
    -9.9134  -8.8386  -7.6116  -7.2565  -6.9912

     occupation numbers 
     1.0000   1.0000   1.0000   1.0000   1.0000   1.0000   1.0000   1.0000
     1.0000   1.0000   1.0000   1.0000   1.0000

          k = 0.0000 0.4399 0.0000 ( 14702 PWs)   bands (ev):

   -66.6416 -40.9976 -40.8118 -40.7081 -18.5129 -18.1586 -11.5926 -10.5679
    -9.9733  -8.9978  -7.7439  -7.0579  -6.9178

     occupation numbers 
     1.0000   1.0000   1.0000   1.0000   1.0000   1.0000   1.0000   1.0000
     1.0000   1.0000   1.0000   1.0000   1.0000

          k = 0.0000 0.4949 0.0000 ( 14696 PWs)   bands (ev):

   -66.6378 -41.0329 -40.8043 -40.7164 -18.3012 -18.0796 -11.7899 -10.7812
   -10.0605  -9.1069  -7.8301  -6.9229  -6.7582

     occupation numbers 
     1.0000   1.0000   1.0000   1.0000   1.0000   1.0000   1.0000   1.0000
     1.0000   1.0000   1.0000   1.0000   1.0000

          k = 0.0000 0.5499 0.0000 ( 14672 PWs)   bands (ev):

   -66.6358 -41.0513 -40.8004 -40.7207 -18.1843 -18.0369 -11.9013 -10.8937
   -10.1217  -9.1623  -7.8720  -6.8560  -6.6361

     occupation numbers 
     1.0000   1.0000   1.0000   1.0000   1.0000   1.0000   1.0000   1.0000
     1.0000   1.0000   1.0000   1.0000   1.0000

          k = 0.0476 0.0825 0.0000 ( 14851 PWs)   bands (ev):

   -66.6779 -40.8828 -40.6508 -40.6284 -20.0854 -18.7838 -11.6187  -8.8220
    -8.4757  -8.2772  -7.6140  -7.1035  -6.0756

     occupation numbers 
     1.0000   1.0000   1.0000   1.0000   1.0000   1.0000   1.0000   1.0000
     1.0000   1.0000   1.0000   1.0000   1.0000

          k = 0.0476 0.1375 0.0000 ( 14821 PWs)   bands (ev):

   -66.6742 -40.8755 -40.6871 -40.6372 -19.9463 -18.7272 -11.4710  -9.0872
    -8.6098  -8.3340  -7.8457  -6.9718  -6.1559

     occupation numbers 
     1.0000   1.0000   1.0000   1.0000   1.0000   1.0000   1.0000   1.0000
     1.0000   1.0000   1.0000   1.0000   1.0000

          k = 0.0476 0.1925 0.0000 ( 14802 PWs)   bands (ev):

   -66.6690 -40.8653 -40.7372 -40.6495 -19.7467 -18.6460 -11.2849  -9.4020
    -8.9698  -8.1374  -8.1258  -6.9583  -6.3141

     occupation numbers 
     1.0000   1.0000   1.0000   1.0000   1.0000   1.0000   1.0000   1.0000
     1.0000   1.0000   1.0000   1.0000   1.0000

          k = 0.0476 0.2474 0.0000 ( 14771 PWs)   bands (ev):

   -66.6628 -40.8532 -40.7963 -40.6640 -19.4973 -18.5449 -11.1233  -9.6860
    -9.3470  -8.4052  -7.9069  -7.0673  -6.5484

     occupation numbers 
     1.0000   1.0000   1.0000   1.0000   1.0000   1.0000   1.0000   1.0000
     1.0000   1.0000   1.0000   1.0000   1.0000

          k = 0.0476 0.3024 0.0000 ( 14790 PWs)   bands (ev):

   -66.6561 -40.8591 -40.8402 -40.6795 -19.2133 -18.4306 -11.0901  -9.8484
    -9.7326  -8.6509  -7.6763  -7.2500  -6.7874

     occupation numbers 
     1.0000   1.0000   1.0000   1.0000   1.0000   1.0000   1.0000   1.0000
     1.0000   1.0000   1.0000   1.0000   1.0000

          k = 0.0476 0.3574 0.0000 ( 14770 PWs)   bands (ev):

   -66.6496 -40.9199 -40.8274 -40.6946 -18.9146 -18.3121 -11.2304 -10.1068
    -9.8860  -8.8486  -7.4918  -7.4492  -6.9062

     occupation numbers 
     1.0000   1.0000   1.0000   1.0000   1.0000   1.0000   1.0000   1.0000
     1.0000   1.0000   1.0000   1.0000   1.0000

          k = 0.0476 0.4124 0.0000 ( 14728 PWs)   bands (ev):

   -66.6438 -40.9734 -40.8160 -40.7080 -18.6271 -18.2001 -11.4555 -10.4412
    -9.9194  -8.9970  -7.6256  -7.3597  -6.8455

     occupation numbers 
     1.0000   1.0000   1.0000   1.0000   1.0000   1.0000   1.0000   1.0000
     1.0000   1.0000   1.0000   1.0000   1.0000

          k = 0.0476 0.4674 0.0000 ( 14713 PWs)   bands (ev):

   -66.6392 -41.0151 -40.8071 -40.7185 -18.3827 -18.1072 -11.6726 -10.7062
    -9.9998  -9.0995  -7.7589  -7.2310  -6.6966

     occupation numbers 
     1.0000   1.0000   1.0000   1.0000   1.0000   1.0000   1.0000   1.0000
     1.0000   1.0000   1.0000   1.0000   1.0000

          k = 0.0476 0.5224 0.0000 ( 14703 PWs)   bands (ev):

   -66.6363 -41.0416 -40.8013 -40.7251 -18.2162 -18.0453 -11.8260 -10.8767
   -10.0828  -9.1595  -7.8406  -7.1295  -6.5547

     occupation numbers 
     1.0000   1.0000   1.0000   1.0000   1.0000   1.0000   1.0000   1.0000
     1.0000   1.0000   1.0000   1.0000   1.0000

          k = 0.0476 0.5774 0.0000 ( 14682 PWs)   bands (ev):

   -66.6353 -41.0507 -40.7994 -40.7274 -18.1568 -18.0236 -11.8814 -10.9355
   -10.1168  -9.1793  -7.8679  -7.0929  -6.4951

     occupation numbers 
     1.0000   1.0000   1.0000   1.0000   1.0000   1.0000   1.0000   1.0000
     1.0000   1.0000   1.0000   1.0000   1.0000

          k = 0.0952 0.1650 0.0000 ( 14801 PWs)   bands (ev):

   -66.6698 -40.8669 -40.7279 -40.6489 -19.7791 -18.6590 -11.3095  -9.3526
    -8.8780  -8.1779  -8.1771  -6.8786  -6.2821

     occupation numbers 
     1.0000   1.0000   1.0000   1.0000   1.0000   1.0000   1.0000   1.0000
     1.0000   1.0000   1.0000   1.0000   1.0000

          k = 0.0952 0.2199 0.0000 ( 14793 PWs)   bands (ev):

   -66.6642 -40.8560 -40.7790 -40.6641 -19.5573 -18.5687 -11.1395  -9.6214
    -9.1760  -8.5357  -7.9958  -6.8834  -6.4780

     occupation numbers 
     1.0000   1.0000   1.0000   1.0000   1.0000   1.0000   1.0000   1.0000
     1.0000   1.0000   1.0000   1.0000   1.0000

          k = 0.0952 0.2749 0.0000 ( 14769 PWs)   bands (ev):

   -66.6579 -40.8437 -40.8359 -40.6814 -19.2937 -18.4618 -11.0465  -9.8048
    -9.5286  -8.8258  -7.8334  -7.0002  -6.6948

     occupation numbers 
     1.0000   1.0000   1.0000   1.0000   1.0000   1.0000   1.0000   1.0000
     1.0000   1.0000   1.0000   1.0000   1.0000

          k = 0.0952 0.3299 0.0000 ( 14775 PWs)   bands (ev):

   -66.6515 -40.8936 -40.8311 -40.6991 -19.0056 -18.3458 -11.1127  -9.9246
    -9.8491  -9.0130  -7.7486  -7.1911  -6.8199

     occupation numbers 
     1.0000   1.0000   1.0000   1.0000   1.0000   1.0000   1.0000   1.0000
     1.0000   1.0000   1.0000   1.0000   1.0000

          k = 0.0952 0.3849 0.0000 ( 14753 PWs)   bands (ev):

   -66.6455 -40.9469 -40.8193 -40.7156 -18.7156 -18.2304 -11.2967 -10.3104
    -9.8464  -9.1198  -7.7257  -7.4063  -6.7891

     occupation numbers 
     1.0000   1.0000   1.0000   1.0000   1.0000   1.0000   1.0000   1.0000
     1.0000   1.0000   1.0000   1.0000   1.0000

          k = 0.0952 0.4399 0.0000 ( 14721 PWs)   bands (ev):

   -66.6404 -40.9913 -40.8094 -40.7294 -18.4522 -18.1274 -11.5035 -10.6384
    -9.9022  -9.1723  -7.6726  -7.6057  -6.6621

     occupation numbers 
     1.0000   1.0000   1.0000   1.0000   1.0000   1.0000   1.0000   1.0000
     1.0000   1.0000   1.0000   1.0000   1.0000

          k = 0.0952 0.4949 0.0000 ( 14699 PWs)   bands (ev):

   -66.6367 -41.0232 -40.8022 -40.7393 -18.2484 -18.0492 -11.6724 -10.8757
    -9.9995  -9.1910  -7.7587  -7.5926  -6.5087

     occupation numbers 
     1.0000   1.0000   1.0000   1.0000   1.0000   1.0000   1.0000   1.0000
     1.0000   1.0000   1.0000   1.0000   1.0000

          k = 0.0952 0.5499 0.0000 ( 14689 PWs)   bands (ev):

   -66.6348 -41.0398 -40.7985 -40.7445 -18.1361 -18.0068 -11.7670 -11.0002
   -10.0695  -9.1943  -7.8424  -7.5401  -6.3988

     occupation numbers 
     1.0000   1.0000   1.0000   1.0000   1.0000   1.0000   1.0000   1.0000
     1.0000   1.0000   1.0000   1.0000   1.0000

          k = 0.1429 0.2474 0.0000 ( 14775 PWs)   bands (ev):

   -66.6585 -40.8450 -40.8269 -40.6831 -19.3210 -18.4723 -11.0312  -9.7852
    -9.4064  -8.9501  -7.8939  -6.8884  -6.6608

     occupation numbers 
     1.0000   1.0000   1.0000   1.0000   1.0000   1.0000   1.0000   1.0000
     1.0000   1.0000   1.0000   1.0000   1.0000

          k = 0.1429 0.3024 0.0000 ( 14764 PWs)   bands (ev):

   -66.6525 -40.8769 -40.8331 -40.7044 -19.0525 -18.3628 -11.0399  -9.8221
    -9.7606  -9.1944  -7.9041  -7.0020  -6.7760

     occupation numbers 
     1.0000   1.0000   1.0000   1.0000   1.0000   1.0000   1.0000   1.0000
     1.0000   1.0000   1.0000   1.0000   1.0000

          k = 0.1429 0.3574 0.0000 ( 14750 PWs)   bands (ev):

   -66.6465 -40.9249 -40.8214 -40.7256 -18.7715 -18.2487 -11.1653 -10.1863
    -9.7750  -9.2784  -8.0156  -7.1965  -6.7687

     occupation numbers 
     1.0000   1.0000   1.0000   1.0000   1.0000   1.0000   1.0000   1.0000
     1.0000   1.0000   1.0000   1.0000   1.0000

          k = 0.1429 0.4124 0.0000 ( 14731 PWs)   bands (ev):

   -66.6412 -40.9670 -40.8111 -40.7447 -18.5027 -18.1403 -11.3310 -10.5754
    -9.7766  -9.2852  -8.1012  -7.4248  -6.6708

     occupation numbers 
     1.0000   1.0000   1.0000   1.0000   1.0000   1.0000   1.0000   1.0000
     1.0000   1.0000   1.0000   1.0000   1.0000

          k = 0.1429 0.4674 0.0000 ( 14719 PWs)   bands (ev):

   -66.6371 -40.9997 -40.8029 -40.7598 -18.2760 -18.0498 -11.4793 -10.8800
    -9.8701  -9.2509  -8.1027  -7.6405  -6.5211

     occupation numbers 
     1.0000   1.0000   1.0000   1.0000   1.0000   1.0000   1.0000   1.0000
     1.0000   1.0000   1.0000   1.0000   1.0000

          k = 0.1429 0.5224 0.0000 ( 14724 PWs)   bands (ev):

   -66.6344 -41.0204 -40.7977 -40.7694 -18.1228 -17.9893 -11.5794 -11.0736
    -9.9799  -9.2063  -8.0720  -7.7992  -6.3718

     occupation numbers 
     1.0000   1.0000   1.0000   1.0000   1.0000   1.0000   1.0000   1.0000
     1.0000   1.0000   1.0000   1.0000   1.0000

          k = 0.1429 0.5774 0.0000 ( 14698 PWs)   bands (ev):

   -66.6335 -41.0276 -40.7959 -40.7727 -18.0683 -17.9679 -11.6146 -11.1400
   -10.0259  -9.1857  -8.0575  -7.8587  -6.3065

     occupation numbers 
     1.0000   1.0000   1.0000   1.0000   1.0000   1.0000   1.0000   1.0000
     1.0000   1.0000   1.0000   1.0000   1.0000

          k = 0.1905 0.3299 0.0000 ( 14757 PWs)   bands (ev):

   -66.6469 -40.9160 -40.8222 -40.7304 -18.7905 -18.2548 -11.1134 -10.1270
    -9.7427  -9.3555  -8.1292  -7.1101  -6.7646

     occupation numbers 
     1.0000   1.0000   1.0000   1.0000   1.0000   1.0000   1.0000   1.0000
     1.0000   1.0000   1.0000   1.0000   1.0000

          k = 0.1905 0.3849 0.0000 ( 14735 PWs)   bands (ev):

   -66.6417 -40.9505 -40.8120 -40.7565 -18.5292 -18.1465 -11.2191 -10.5327
    -9.6650  -9.3678  -8.3927  -7.3028  -6.6865

     occupation numbers 
     1.0000   1.0000   1.0000   1.0000   1.0000   1.0000   1.0000   1.0000
     1.0000   1.0000   1.0000   1.0000   1.0000

          k = 0.1905 0.4399 0.0000 ( 14721 PWs)   bands (ev):

   -66.6373 -40.9781 -40.8034 -40.7796 -18.2946 -18.0491 -11.3110 -10.8833
    -9.7009  -9.3078  -8.5600  -7.5336  -6.5500

     occupation numbers 
     1.0000   1.0000   1.0000   1.0000   1.0000   1.0000   1.0000   1.0000
     1.0000   1.0000   1.0000   1.0000   1.0000

          k = 0.1905 0.4949 0.0000 ( 14718 PWs)   bands (ev):

   -66.6341 -40.9973 -40.7972 -40.7967 -18.1154 -17.9747 -11.3687 -11.1366
    -9.8403  -9.2181  -8.6072  -7.7484  -6.3777

     occupation numbers 
     1.0000   1.0000   1.0000   1.0000   1.0000   1.0000   1.0000   1.0000
     1.0000   1.0000   1.0000   1.0000   1.0000

          k = 0.1905 0.5499 0.0000 ( 14737 PWs)   bands (ev):

   -66.6325 -41.0072 -40.8059 -40.7939 -18.0177 -17.9342 -11.3927 -11.2691
    -9.9550  -9.1478  -8.6088  -7.8849  -6.2464

     occupation numbers 
     1.0000   1.0000   1.0000   1.0000   1.0000   1.0000   1.0000   1.0000
     1.0000   1.0000   1.0000   1.0000   1.0000

          k = 0.2381 0.4124 0.0000 ( 14722 PWs)   bands (ev):

   -66.6374 -40.9687 -40.8035 -40.7883 -18.3011 -18.0487 -11.2429 -10.8843
    -9.5895  -9.3308  -8.7803  -7.4903  -6.5636

     occupation numbers 
     1.0000   1.0000   1.0000   1.0000   1.0000   1.0000   1.0000   1.0000
     1.0000   1.0000   1.0000   1.0000   1.0000

          k = 0.2381 0.4674 0.0000 ( 14727 PWs)   bands (ev):

   -66.6340 -40.9796 -40.8168 -40.7969 -18.1123 -17.9664 -11.2211 -11.1726
    -9.6538  -9.2264  -9.0369  -7.7127  -6.3882

     occupation numbers 
     1.0000   1.0000   1.0000   1.0000   1.0000   1.0000   1.0000   1.0000
     1.0000   1.0000   1.0000   1.0000   1.0000

          k = 0.2381 0.5224 0.0000 ( 14727 PWs)   bands (ev):

   -66.6318 -40.9844 -40.8370 -40.7927 -17.9868 -17.9110 -11.3593 -11.1668
    -9.8461  -9.1090  -9.1080  -7.9072  -6.2072

     occupation numbers 
     1.0000   1.0000   1.0000   1.0000   1.0000   1.0000   1.0000   1.0000
     1.0000   1.0000   1.0000   1.0000   1.0000

          k = 0.2381 0.5774 0.0000 ( 14748 PWs)   bands (ev):

   -66.6311 -40.9856 -40.8444 -40.7912 -17.9427 -17.8914 -11.4237 -11.1343
    -9.9460  -9.1160  -9.0532  -7.9898  -6.1249

     occupation numbers 
     1.0000   1.0000   1.0000   1.0000   1.0000   1.0000   1.0000   1.0000
     1.0000   1.0000   1.0000   1.0000   1.0000

          k = 0.2857 0.4949 0.0000 ( 14690 PWs)   bands (ev):

   -66.6316 -40.9728 -40.8515 -40.7922 -17.9764 -17.9027 -11.3915 -11.0626
    -9.7348  -9.3796  -9.0931  -7.9157  -6.1927

     occupation numbers 
     1.0000   1.0000   1.0000   1.0000   1.0000   1.0000   1.0000   1.0000
     1.0000   1.0000   1.0000   1.0000   1.0000

          k = 0.2857 0.5499 0.0000 ( 14716 PWs)   bands (ev):

   -66.6304 -40.9634 -40.8755 -40.7898 -17.9038 -17.8679 -11.5086 -10.8919
    -9.9803  -9.4504  -8.9782  -8.0676  -6.0406

     occupation numbers 
     1.0000   1.0000   1.0000   1.0000   1.0000   1.0000   1.0000   1.0000
     1.0000   1.0000   1.0000   1.0000   1.0000

          k = 0.3333 0.5774 0.0000 ( 14718 PWs)   bands (ev):

   -66.6299 -40.9475 -40.8974 -40.7888 -17.8751 -17.8526 -11.5609 -10.6920
   -10.1668  -9.5342  -8.9125  -8.1434  -5.9650

     occupation numbers 
     1.0000   1.0000   1.0000   1.0000   1.0000   1.0000   1.0000   1.0000
     1.0000   1.0000   1.0000   1.0000   1.0000

     highest occupied level (ev):    -5.9650

!    total energy              =    -184.83183574 Ry
     estimated scf accuracy    <          7.1E-16 Ry

     The total energy is the sum of the following terms:
     one-electron contribution =   -2107.55959792 Ry
     hartree contribution      =    1049.35921776 Ry
     xc contribution           =     -33.16671339 Ry
     ewald contribution        =     906.53525781 Ry

     convergence has been achieved in  33 iterations

     Writing all to output data dir ./tmp/MoS2.save/ :
     XML data file, charge density, pseudopotentials, collected wavefunctions

     init_run     :      1.55s CPU      1.79s WALL (       1 calls)
     electrons    :     37.05s CPU     38.78s WALL (       1 calls)

     Called by init_run:
     wfcinit      :      0.47s CPU      0.48s WALL (       1 calls)
     wfcinit:atom :      0.01s CPU      0.01s WALL (      48 calls)
     wfcinit:wfcr :      0.43s CPU      0.44s WALL (      48 calls)
     potinit      :      0.01s CPU      0.02s WALL (       1 calls)
     hinit0       :      0.67s CPU      0.68s WALL (       1 calls)

     Called by electrons:
     c_bands      :     31.96s CPU     33.52s WALL (      34 calls)
     sum_band     :      4.64s CPU      4.74s WALL (      34 calls)
     v_of_rho     :      0.21s CPU      0.22s WALL (      34 calls)
     v_h          :      0.01s CPU      0.01s WALL (      34 calls)
     v_xc         :      0.20s CPU      0.20s WALL (      34 calls)
     mix_rho      :      0.07s CPU      0.07s WALL (      34 calls)

     Called by c_bands:
     init_us_2    :      0.68s CPU      0.71s WALL (    3312 calls)
     cegterg      :     29.99s CPU     30.79s WALL (    1632 calls)

     Called by sum_band:
     sum_band:wei :      0.00s CPU      0.00s WALL (      34 calls)
     sum_band:loo :      4.59s CPU      4.69s WALL (      34 calls)
     sum_band:buf :      0.02s CPU      0.02s WALL (    1632 calls)
     sum_band:ini :      0.34s CPU      0.34s WALL (    1632 calls)

     Called by *egterg:
     cdiaghg      :      2.27s CPU      2.31s WALL (    5768 calls)
     cegterg:over :      1.07s CPU      1.09s WALL (    4184 calls)
     cegterg:upda :      0.29s CPU      0.29s WALL (    4184 calls)
     cegterg:last :      0.37s CPU      0.37s WALL (    3125 calls)
     h_psi        :     25.59s CPU     26.32s WALL (    5864 calls)
     g_psi        :      0.07s CPU      0.07s WALL (    4184 calls)

     Called by h_psi:
     h_psi:calbec :      1.44s CPU      1.47s WALL (    5864 calls)
     vloc_psi     :     23.22s CPU     23.90s WALL (    5864 calls)
                                        0.00s GPU  (    5864 calls)
     add_vuspsi   :      0.84s CPU      0.86s WALL (    5864 calls)

     General routines
     calbec       :      1.43s CPU      1.46s WALL (    5864 calls)
     fft          :      0.84s CPU      0.85s WALL (     341 calls)
     ffts         :      0.01s CPU      0.01s WALL (      34 calls)
     fftw         :     25.77s CPU     26.49s WALL (  135812 calls)

     Parallel routines

     PWSCF        :     39.58s CPU     42.13s WALL


   This run was terminated on:   1:12:52  13Mar2026            

=------------------------------------------------------------------------------=
   JOB DONE.
=------------------------------------------------------------------------------=
