&BANDS
  prefix = 'NiI2'
  outdir = './tmp/'
  filband = 'NiI2.bands.dat'
/

