&projwfc
  prefix='NiI2',
  outdir='tmp',
  filproj='NiI2_proj',
  filpdos= 'NiI2'  
  Emin=2.0, Emax=8.0, DeltaE=0.01,
  ngauss=0, degauss=0.005,
/
