&CONTROL
  calculation = 'bands'
  outdir = './tmp/'
  prefix = 'NiI2'
  pseudo_dir = './Pseudos/'
  verbosity = 'high'
/
&SYSTEM
  ibrav = 5
  A = 14.201
  cosAB = 0.9612
  nat = 6
  ntyp = 3

  ecutwfc = 49
  occupations = 'smearing'
  degauss = 1.0d-2

  nspin = 2
  nbnd = 200
/
&ELECTRONS
  conv_thr = 1.0d-10
/
ATOMIC_SPECIES
Ni1  58.6934    Ni_pbesol.upf
Ni2  58.6934    Ni_pbesol.upf
I   126.90447   I_pbesol.upf

ATOMIC_POSITIONS crystal
Ni1   0.00000  0.00000  0.00000
Ni2   0.5000000000  0.5000000000 -0.5000000000
I     0.1302307597  0.1302307597  0.1302307597
I     0.6302307743  0.6302307743 -0.3697692257
I     0.3697692257  0.3697692257 -0.6302307743
I     0.8697692403 -0.1302307597 -0.1302307590

K_POINTS {crystal_b}
13
  0.0000000000    0.0000000000    0.0000000000 30 !G
  0.5000000000    0.0000000000    0.0000000000 20 !L
  0.5000000000    -0.1843603990   0.1843603990 6 !B1
  0.8156396010    0.1843603990    0.5000000000 30 !B
  0.5000000000    0.5000000000    0.5000000000 10 !Z
  0.0000000000    0.0000000000    0.0000000000 30 !G
  0.3421801995    -0.3421801995   0.0000000000 6 !X
  0.6578198005    0.0000000000    0.3421801995 10 !Q
  0.5000000000    0.0000000000    0.5000000000 5 !F
  0.6578198005    0.1843603990    0.6578198005 30 !P1
  0.5000000000    0.5000000000    0.5000000000 10 !Z
  0.5000000000    0.0000000000    0.0000000000 5 !L
  0.8156396010    0.3421801995    0.3421801995 1 !P

