&CONTROL
  calculation = 'nscf'
  outdir = './tmp/'
  prefix = 'NiI2'
  pseudo_dir = './Pseudos/'
  verbosity = 'high'
/
&SYSTEM
  ibrav = 5
  A = 14.201
  cosAB = 0.9612
  nat = 6
  ntyp = 3

  ecutwfc = 49
  occupations = 'smearing'
  degauss = 1.0d-2

  nspin = 2
  nbnd = 200
/
&ELECTRONS
  conv_thr = 1.0d-10
/
ATOMIC_SPECIES
Ni1  58.6934    Ni_pbesol.upf
Ni2  58.6934    Ni_pbesol.upf
I   126.90447   I_pbesol.upf

ATOMIC_POSITIONS crystal
Ni1   0.00000  0.00000  0.00000
Ni2   0.5000000000  0.5000000000 -0.5000000000
I     0.1302307597  0.1302307597  0.1302307597
I     0.6302307743  0.6302307743 -0.3697692257
I     0.3697692257  0.3697692257 -0.6302307743
I     0.8697692403 -0.1302307597 -0.1302307590

K_POINTS automatic
6 6 6 0 0 0

