
     Program PWSCF v.7.5 starts on 12Mar2026 at  1:52:42 
        Git branch: HEAD
        Last git commit: 770a0b2d12928a67048e2f3da8d10d057e52179e
        Last git commit date: Tue Aug 19 09:57:12 2025 +0000
        Last git commit subject: Merge branch 'QE-7.5-RC' into 'master'

     This program is part of the open-source Quantum ESPRESSO suite
     for quantum simulation of materials; please cite
         "P. Giannozzi et al., J. Phys.:Condens. Matter 21 395502 (2009);
         "P. Giannozzi et al., J. Phys.:Condens. Matter 29 465901 (2017);
         "P. Giannozzi et al., J. Chem. Phys. 152 154105 (2020);
          URL http://www.quantum-espresso.org", 
     in publications or presentations arising from this work. More details at
     http://www.quantum-espresso.org/quote

     Parallel version (MPI), running on    64 processors

     MPI processes distributed on     4 nodes
     245419 MiB available memory on the printing compute node when the environment starts

     Waiting for input...
     Reading input from standard input

     Current dimensions of program PWSCF are:
     Max number of different atomic species (ntypx) = 10
     Max number of k-points (npk) =  40000
     Max angular momentum in pseudopotentials (lmaxx) =  4

     R & G space division:  proc/nbgrp/npool/nimage =      64
     Subspace diagonalization in iterative solution of the eigenvalue problem:
     a serial algorithm will be used


     Parallelization info
     --------------------
     sticks:   dense  smooth     PW     G-vecs:    dense   smooth      PW
     Min          12      12      3                 1830     1830     275
     Max          13      13      4                 1861     1861     314
     Sum         769     769    223               118307   118307   18477

     Using Slab Decomposition



     bravais-lattice index     =            4
     lattice parameter (alat)  =       5.9477  a.u.
     unit-cell volume          =    1225.4506 (a.u.)^3
     number of atoms/cell      =            3
     number of atomic types    =            2
     number of electrons       =        26.00
     number of Kohn-Sham states=           13
     kinetic-energy cutoff     =      80.0000  Ry
     charge density cutoff     =     320.0000  Ry
     scf convergence threshold =      1.0E-15
     mixing beta               =       0.7000
     number of iterations used =            8  plain     mixing
     Exchange-correlation= PBESOL
                           (   1   4  10   8   0   0   0)

     celldm(1)=   5.947749  celldm(2)=   0.000000  celldm(3)=   6.725234
     celldm(4)=   0.000000  celldm(5)=   0.000000  celldm(6)=   0.000000

     crystal axes: (cart. coord. in units of alat)
               a(1) = (   1.000000   0.000000   0.000000 )  
               a(2) = (  -0.500000   0.866025   0.000000 )  
               a(3) = (   0.000000   0.000000   6.725234 )  

     reciprocal axes: (cart. coord. in units 2 pi/alat)
               b(1) = (  1.000000  0.577350 -0.000000 )  
               b(2) = (  0.000000  1.154701  0.000000 )  
               b(3) = (  0.000000 -0.000000  0.148694 )  


     PseudoPot. # 1 for Mo read from file:
     ../pseudo/Mo.pbesol.dojo.upf
     MD5 check sum: c40353276b9086539cda6b9e5a66907b
     Pseudo is Norm-conserving + core correction, Zval = 14.0
     Generated using ONCVPSP code by D. R. Hamann
     Using radial grid of 1640 points,  6 beta functions with: 
                l(1) =   0
                l(2) =   0
                l(3) =   1
                l(4) =   1
                l(5) =   2
                l(6) =   2

     PseudoPot. # 2 for S  read from file:
     ../pseudo/S.pbesol.dojo.upf
     MD5 check sum: 501737efeeef1fb1c631cda521d4e019
     Pseudo is Norm-conserving + core correction, Zval =  6.0
     Generated using ONCVPSP code by D. R. Hamann
     Using radial grid of 1146 points,  6 beta functions with: 
                l(1) =   0
                l(2) =   0
                l(3) =   1
                l(4) =   1
                l(5) =   2
                l(6) =   2

     atomic species   valence    mass     pseudopotential
     Mo               14.00    95.95000     Mo( 1.00)
     S                 6.00    32.06500     S ( 1.00)

     12 Sym. Ops. (no inversion) found


                                    s                        frac. trans.

      isym =  1     identity                                     

 cryst.   s( 1) = (     1          0          0      )
                  (     0          1          0      )
                  (     0          0          1      )

 cart.    s( 1) = (  1.0000000  0.0000000  0.0000000 )
                  (  0.0000000  1.0000000  0.0000000 )
                  (  0.0000000  0.0000000  1.0000000 )


      isym =  2     180 deg rotation - cart. axis [0,1,0]        

 cryst.   s( 2) = (    -1          0          0      )
                  (     1          1          0      )
                  (     0          0         -1      )

 cart.    s( 2) = ( -1.0000000  0.0000000  0.0000000 )
                  (  0.0000000  1.0000000  0.0000000 )
                  (  0.0000000  0.0000000 -1.0000000 )


      isym =  3     120 deg rotation - cryst. axis [0,0,1]       

 cryst.   s( 3) = (     0          1          0      )
                  (    -1         -1          0      )
                  (     0          0          1      )

 cart.    s( 3) = ( -0.5000000 -0.8660254  0.0000000 )
                  (  0.8660254 -0.5000000  0.0000000 )
                  (  0.0000000  0.0000000  1.0000000 )


      isym =  4     120 deg rotation - cryst. axis [0,0,-1]      

 cryst.   s( 4) = (    -1         -1          0      )
                  (     1          0          0      )
                  (     0          0          1      )

 cart.    s( 4) = ( -0.5000000  0.8660254  0.0000000 )
                  ( -0.8660254 -0.5000000  0.0000000 )
                  (  0.0000000  0.0000000  1.0000000 )


      isym =  5     180 deg rotation - cryst. axis [1,-1,0]      

 cryst.   s( 5) = (     0         -1          0      )
                  (    -1          0          0      )
                  (     0          0         -1      )

 cart.    s( 5) = (  0.5000000 -0.8660254  0.0000000 )
                  ( -0.8660254 -0.5000000  0.0000000 )
                  (  0.0000000  0.0000000 -1.0000000 )


      isym =  6     180 deg rotation - cryst. axis [2,1,0]       

 cryst.   s( 6) = (     1          1          0      )
                  (     0         -1          0      )
                  (     0          0         -1      )

 cart.    s( 6) = (  0.5000000  0.8660254  0.0000000 )
                  (  0.8660254 -0.5000000  0.0000000 )
                  (  0.0000000  0.0000000 -1.0000000 )


      isym =  7     inv. 180 deg rotation - cart. axis [0,0,1]   

 cryst.   s( 7) = (     1          0          0      )
                  (     0          1          0      )
                  (     0          0         -1      )

 cart.    s( 7) = (  1.0000000  0.0000000  0.0000000 )
                  (  0.0000000  1.0000000  0.0000000 )
                  (  0.0000000  0.0000000 -1.0000000 )


      isym =  8     inv. 180 deg rotation - cart. axis [1,0,0]   

 cryst.   s( 8) = (    -1          0          0      )
                  (     1          1          0      )
                  (     0          0          1      )

 cart.    s( 8) = ( -1.0000000  0.0000000  0.0000000 )
                  (  0.0000000  1.0000000  0.0000000 )
                  (  0.0000000  0.0000000  1.0000000 )


      isym =  9     inv.  60 deg rotation - cryst. axis [0,0,1]  

 cryst.   s( 9) = (    -1         -1          0      )
                  (     1          0          0      )
                  (     0          0         -1      )

 cart.    s( 9) = ( -0.5000000  0.8660254  0.0000000 )
                  ( -0.8660254 -0.5000000  0.0000000 )
                  (  0.0000000  0.0000000 -1.0000000 )


      isym = 10     inv.  60 deg rotation - cryst. axis [0,0,-1] 

 cryst.   s(10) = (     0          1          0      )
                  (    -1         -1          0      )
                  (     0          0         -1      )

 cart.    s(10) = ( -0.5000000 -0.8660254  0.0000000 )
                  (  0.8660254 -0.5000000  0.0000000 )
                  (  0.0000000  0.0000000 -1.0000000 )


      isym = 11     inv. 180 deg rotation - cryst. axis [0,1,0]  

 cryst.   s(11) = (     1          1          0      )
                  (     0         -1          0      )
                  (     0          0          1      )

 cart.    s(11) = (  0.5000000  0.8660254  0.0000000 )
                  (  0.8660254 -0.5000000  0.0000000 )
                  (  0.0000000  0.0000000  1.0000000 )


      isym = 12     inv. 180 deg rotation - cryst. axis [1,1,0]  

 cryst.   s(12) = (     0         -1          0      )
                  (    -1          0          0      )
                  (     0          0          1      )

 cart.    s(12) = (  0.5000000 -0.8660254  0.0000000 )
                  ( -0.8660254 -0.5000000  0.0000000 )
                  (  0.0000000  0.0000000  1.0000000 )


     point group D_3h (-62m)
     there are  6 classes
     the character table:

       E     2C3   3C2   s_h   2S3   3s_v 
A'_1   1.00  1.00  1.00  1.00  1.00  1.00
A'_2   1.00  1.00 -1.00  1.00  1.00 -1.00
E'     2.00 -1.00  0.00  2.00 -1.00  0.00
A''1   1.00  1.00  1.00 -1.00 -1.00 -1.00
A''2   1.00  1.00 -1.00 -1.00 -1.00  1.00
E''    2.00 -1.00  0.00 -2.00  1.00  0.00

     the symmetry operations in each class and the name of the first element:

     E        1
          identity                                               
     2C3      3    4
          120 deg rotation - cryst. axis [0,0,1]                 
     3C2      2    6    5
          180 deg rotation - cart. axis [0,1,0]                  
     s_h      7
          inv. 180 deg rotation - cart. axis [0,0,1]             
     2S3      9   10
          inv.  60 deg rotation - cryst. axis [0,0,1]            
     3s_v     8   11   12
          inv. 180 deg rotation - cart. axis [1,0,0]             

   Cartesian axes

     site n.     atom                  positions (alat units)
         1        Mo     tau(   1) = (   0.0000000   0.5773502   0.0000000  )
         2        S      tau(   2) = (   0.5000000   0.2886751   0.4945031  )
         3        S      tau(   3) = (   0.5000000   0.2886751  -0.4945031  )

     Fixed atoms
     site n.  direction
         1    1   1   1
         2    0   0   1
         3    0   0   1

   Crystallographic axes

     site n.     atom                  positions (cryst. coord.)
         1        Mo     tau(   1) = (  0.3333333  0.6666666  0.0000000  )
         2        S      tau(   2) = (  0.6666667  0.3333333  0.0735295  )
         3        S      tau(   3) = (  0.6666667  0.3333333 -0.0735295  )

     number of k points=    48
                       cart. coord. in units 2pi/alat
        k(    1) = (   0.0000000   0.0000000   0.0000000), wk =   0.0045351
        k(    2) = (   0.0000000   0.0549857   0.0000000), wk =   0.0272109
        k(    3) = (   0.0000000   0.1099715   0.0000000), wk =   0.0272109
        k(    4) = (   0.0000000   0.1649572   0.0000000), wk =   0.0272109
        k(    5) = (   0.0000000   0.2199430   0.0000000), wk =   0.0272109
        k(    6) = (   0.0000000   0.2749287   0.0000000), wk =   0.0272109
        k(    7) = (   0.0000000   0.3299144   0.0000000), wk =   0.0272109
        k(    8) = (   0.0000000   0.3849002   0.0000000), wk =   0.0272109
        k(    9) = (   0.0000000   0.4398859   0.0000000), wk =   0.0272109
        k(   10) = (   0.0000000   0.4948717   0.0000000), wk =   0.0272109
        k(   11) = (   0.0000000   0.5498574   0.0000000), wk =   0.0272109
        k(   12) = (   0.0476190   0.0824786   0.0000000), wk =   0.0272109
        k(   13) = (   0.0476190   0.1374643   0.0000000), wk =   0.0544218
        k(   14) = (   0.0476190   0.1924501   0.0000000), wk =   0.0544218
        k(   15) = (   0.0476190   0.2474358   0.0000000), wk =   0.0544218
        k(   16) = (   0.0476190   0.3024216   0.0000000), wk =   0.0544218
        k(   17) = (   0.0476190   0.3574073   0.0000000), wk =   0.0544218
        k(   18) = (   0.0476190   0.4123930   0.0000000), wk =   0.0544218
        k(   19) = (   0.0476190   0.4673788   0.0000000), wk =   0.0544218
        k(   20) = (   0.0476190   0.5223645   0.0000000), wk =   0.0544218
        k(   21) = (   0.0476190   0.5773503   0.0000000), wk =   0.0272109
        k(   22) = (   0.0952381   0.1649572   0.0000000), wk =   0.0272109
        k(   23) = (   0.0952381   0.2199430   0.0000000), wk =   0.0544218
        k(   24) = (   0.0952381   0.2749287   0.0000000), wk =   0.0544218
        k(   25) = (   0.0952381   0.3299144   0.0000000), wk =   0.0544218
        k(   26) = (   0.0952381   0.3849002   0.0000000), wk =   0.0544218
        k(   27) = (   0.0952381   0.4398859   0.0000000), wk =   0.0544218
        k(   28) = (   0.0952381   0.4948717   0.0000000), wk =   0.0544218
        k(   29) = (   0.0952381   0.5498574   0.0000000), wk =   0.0544218
        k(   30) = (   0.1428571   0.2474358   0.0000000), wk =   0.0272109
        k(   31) = (   0.1428571   0.3024216   0.0000000), wk =   0.0544218
        k(   32) = (   0.1428571   0.3574073   0.0000000), wk =   0.0544218
        k(   33) = (   0.1428571   0.4123930   0.0000000), wk =   0.0544218
        k(   34) = (   0.1428571   0.4673788   0.0000000), wk =   0.0544218
        k(   35) = (   0.1428571   0.5223645   0.0000000), wk =   0.0544218
        k(   36) = (   0.1428571   0.5773503   0.0000000), wk =   0.0272109
        k(   37) = (   0.1904762   0.3299144   0.0000000), wk =   0.0272109
        k(   38) = (   0.1904762   0.3849002   0.0000000), wk =   0.0544218
        k(   39) = (   0.1904762   0.4398859   0.0000000), wk =   0.0544218
        k(   40) = (   0.1904762   0.4948717   0.0000000), wk =   0.0544218
        k(   41) = (   0.1904762   0.5498574   0.0000000), wk =   0.0544218
        k(   42) = (   0.2380952   0.4123930   0.0000000), wk =   0.0272109
        k(   43) = (   0.2380952   0.4673788   0.0000000), wk =   0.0544218
        k(   44) = (   0.2380952   0.5223645   0.0000000), wk =   0.0544218
        k(   45) = (   0.2380952   0.5773503   0.0000000), wk =   0.0272109
        k(   46) = (   0.2857143   0.4948717   0.0000000), wk =   0.0272109
        k(   47) = (   0.2857143   0.5498574   0.0000000), wk =   0.0544218
        k(   48) = (   0.3333333   0.5773503   0.0000000), wk =   0.0090703

                       cryst. coord.
        k(    1) = (   0.0000000   0.0000000   0.0000000), wk =   0.0045351
        k(    2) = (   0.0000000   0.0476190   0.0000000), wk =   0.0272109
        k(    3) = (   0.0000000   0.0952381   0.0000000), wk =   0.0272109
        k(    4) = (   0.0000000   0.1428571   0.0000000), wk =   0.0272109
        k(    5) = (   0.0000000   0.1904762   0.0000000), wk =   0.0272109
        k(    6) = (   0.0000000   0.2380952   0.0000000), wk =   0.0272109
        k(    7) = (   0.0000000   0.2857143   0.0000000), wk =   0.0272109
        k(    8) = (   0.0000000   0.3333333   0.0000000), wk =   0.0272109
        k(    9) = (   0.0000000   0.3809524   0.0000000), wk =   0.0272109
        k(   10) = (   0.0000000   0.4285714   0.0000000), wk =   0.0272109
        k(   11) = (   0.0000000   0.4761905   0.0000000), wk =   0.0272109
        k(   12) = (   0.0476190   0.0476190   0.0000000), wk =   0.0272109
        k(   13) = (   0.0476190   0.0952381   0.0000000), wk =   0.0544218
        k(   14) = (   0.0476190   0.1428571   0.0000000), wk =   0.0544218
        k(   15) = (   0.0476190   0.1904762   0.0000000), wk =   0.0544218
        k(   16) = (   0.0476190   0.2380952   0.0000000), wk =   0.0544218
        k(   17) = (   0.0476190   0.2857143   0.0000000), wk =   0.0544218
        k(   18) = (   0.0476190   0.3333333   0.0000000), wk =   0.0544218
        k(   19) = (   0.0476190   0.3809524   0.0000000), wk =   0.0544218
        k(   20) = (   0.0476190   0.4285714   0.0000000), wk =   0.0544218
        k(   21) = (   0.0476190   0.4761905   0.0000000), wk =   0.0272109
        k(   22) = (   0.0952381   0.0952381   0.0000000), wk =   0.0272109
        k(   23) = (   0.0952381   0.1428571   0.0000000), wk =   0.0544218
        k(   24) = (   0.0952381   0.1904762   0.0000000), wk =   0.0544218
        k(   25) = (   0.0952381   0.2380952   0.0000000), wk =   0.0544218
        k(   26) = (   0.0952381   0.2857143   0.0000000), wk =   0.0544218
        k(   27) = (   0.0952381   0.3333333   0.0000000), wk =   0.0544218
        k(   28) = (   0.0952381   0.3809524   0.0000000), wk =   0.0544218
        k(   29) = (   0.0952381   0.4285714   0.0000000), wk =   0.0544218
        k(   30) = (   0.1428571   0.1428571   0.0000000), wk =   0.0272109
        k(   31) = (   0.1428571   0.1904762   0.0000000), wk =   0.0544218
        k(   32) = (   0.1428571   0.2380952   0.0000000), wk =   0.0544218
        k(   33) = (   0.1428571   0.2857143   0.0000000), wk =   0.0544218
        k(   34) = (   0.1428571   0.3333333   0.0000000), wk =   0.0544218
        k(   35) = (   0.1428571   0.3809524   0.0000000), wk =   0.0544218
        k(   36) = (   0.1428571   0.4285714   0.0000000), wk =   0.0272109
        k(   37) = (   0.1904762   0.1904762   0.0000000), wk =   0.0272109
        k(   38) = (   0.1904762   0.2380952   0.0000000), wk =   0.0544218
        k(   39) = (   0.1904762   0.2857143   0.0000000), wk =   0.0544218
        k(   40) = (   0.1904762   0.3333333   0.0000000), wk =   0.0544218
        k(   41) = (   0.1904762   0.3809524   0.0000000), wk =   0.0544218
        k(   42) = (   0.2380952   0.2380952   0.0000000), wk =   0.0272109
        k(   43) = (   0.2380952   0.2857143   0.0000000), wk =   0.0544218
        k(   44) = (   0.2380952   0.3333333   0.0000000), wk =   0.0544218
        k(   45) = (   0.2380952   0.3809524   0.0000000), wk =   0.0272109
        k(   46) = (   0.2857143   0.2857143   0.0000000), wk =   0.0272109
        k(   47) = (   0.2857143   0.3333333   0.0000000), wk =   0.0544218
        k(   48) = (   0.3333333   0.3333333   0.0000000), wk =   0.0090703

     Dense  grid:   118307 G-vectors     FFT dimensions: (  36,  36, 240)

     Dynamical RAM for                 wfc:       0.05 MB

     Dynamical RAM for     wfc (w. buffer):       2.25 MB

     Dynamical RAM for           str. fact:       0.06 MB

     Dynamical RAM for           local pot:       0.00 MB

     Dynamical RAM for          nlocal pot:       0.19 MB

     Dynamical RAM for                qrad:       2.87 MB

     Dynamical RAM for          rho,v,vnew:       0.20 MB

     Dynamical RAM for               rhoin:       0.07 MB

     Dynamical RAM for            rho*nmix:       0.45 MB

     Dynamical RAM for           G-vectors:       0.12 MB

     Dynamical RAM for          h,s,v(r/c):       0.03 MB

     Dynamical RAM for          <psi|beta>:       0.01 MB

     Dynamical RAM for                 psi:       0.09 MB

     Dynamical RAM for                hpsi:       0.09 MB

     Dynamical RAM for      wfcinit/wfcrot:       0.10 MB

     Estimated static dynamical RAM per process >       6.04 MB

     Estimated max dynamical RAM per process >       6.72 MB

     Estimated total dynamical RAM >     429.82 MB
 ----2D----2D----2D----2D----2D----2D----2D----2D----2D----2D----2D----2D
  The code is running with the 2D cutoff
  Please refer to:
  Sohier, T., Calandra, M., & Mauri, F. (2017), 
  Density functional perturbation theory for gated two-dimensional heterostructures:
  Theoretical developments and application to flexural phonons in graphene.
  Physical Review B, 96(7), 75448. https://doi.org/10.1103/PhysRevB.96.075448
 ----2D----2D----2D----2D----2D----2D----2D----2D----2D----2D----2D----2D

     Initial potential from superposition of free atoms

     starting charge      25.9986, renormalised to      26.0000

     negative rho (up, down):  2.997E-05 0.000E+00
     Starting wfcs are   18 randomized atomic wfcs

     total cpu time spent up to now is        2.0 secs

     per-process dynamical memory:    61.3 Mb

     Self-consistent Calculation

     iteration #  1     ecut=    80.00 Ry     beta= 0.70
     Davidson diagonalization with overlap

---- Real-time Memory Report at c_bands before calling an iterative solver
            76 MiB given to the printing process from OS
            59 MiB allocation reported by mallinfo(arena+hblkhd)
        245195 MiB available memory on the node where the printing process lives
------------------
     ethr =  1.00E-02,  avg # of iterations =  2.1

     total cpu time spent up to now is        3.1 secs

     total energy              =    -184.56664914 Ry
     estimated scf accuracy    <       0.41919751 Ry

     iteration #  2     ecut=    80.00 Ry     beta= 0.70
     Davidson diagonalization with overlap

---- Real-time Memory Report at c_bands before calling an iterative solver
            78 MiB given to the printing process from OS
            60 MiB allocation reported by mallinfo(arena+hblkhd)
        245180 MiB available memory on the node where the printing process lives
------------------
     ethr =  1.61E-03,  avg # of iterations =  7.3

     total cpu time spent up to now is        5.2 secs

     total energy              =    -184.29056509 Ry
     estimated scf accuracy    <       4.20035828 Ry

     iteration #  3     ecut=    80.00 Ry     beta= 0.70
     Davidson diagonalization with overlap

---- Real-time Memory Report at c_bands before calling an iterative solver
            78 MiB given to the printing process from OS
            60 MiB allocation reported by mallinfo(arena+hblkhd)
        245181 MiB available memory on the node where the printing process lives
------------------
     ethr =  1.61E-03,  avg # of iterations =  5.9

     total cpu time spent up to now is        6.8 secs

     total energy              =    -184.81693894 Ry
     estimated scf accuracy    <       0.00892446 Ry

     iteration #  4     ecut=    80.00 Ry     beta= 0.70
     Davidson diagonalization with overlap

---- Real-time Memory Report at c_bands before calling an iterative solver
            79 MiB given to the printing process from OS
            60 MiB allocation reported by mallinfo(arena+hblkhd)
        245180 MiB available memory on the node where the printing process lives
------------------
     ethr =  3.43E-05,  avg # of iterations =  5.7

     total cpu time spent up to now is        8.6 secs

     total energy              =    -184.82964041 Ry
     estimated scf accuracy    <       0.02610563 Ry

     iteration #  5     ecut=    80.00 Ry     beta= 0.70
     Davidson diagonalization with overlap

---- Real-time Memory Report at c_bands before calling an iterative solver
            79 MiB given to the printing process from OS
            60 MiB allocation reported by mallinfo(arena+hblkhd)
        245180 MiB available memory on the node where the printing process lives
------------------
     ethr =  3.43E-05,  avg # of iterations =  3.4

     total cpu time spent up to now is        9.8 secs

     total energy              =    -184.83057250 Ry
     estimated scf accuracy    <       0.00352644 Ry

     iteration #  6     ecut=    80.00 Ry     beta= 0.70
     Davidson diagonalization with overlap

---- Real-time Memory Report at c_bands before calling an iterative solver
            79 MiB given to the printing process from OS
            60 MiB allocation reported by mallinfo(arena+hblkhd)
        245179 MiB available memory on the node where the printing process lives
------------------
     ethr =  1.36E-05,  avg # of iterations =  4.5

     negative rho (up, down):  1.353E-07 0.000E+00

     total cpu time spent up to now is       11.3 secs

     total energy              =    -184.83180876 Ry
     estimated scf accuracy    <       0.00054335 Ry

     iteration #  7     ecut=    80.00 Ry     beta= 0.70
     Davidson diagonalization with overlap

---- Real-time Memory Report at c_bands before calling an iterative solver
            79 MiB given to the printing process from OS
            60 MiB allocation reported by mallinfo(arena+hblkhd)
        245155 MiB available memory on the node where the printing process lives
------------------
     ethr =  2.09E-06,  avg # of iterations =  2.1

     total cpu time spent up to now is       12.3 secs

     total energy              =    -184.83173613 Ry
     estimated scf accuracy    <       0.00029695 Ry

     iteration #  8     ecut=    80.00 Ry     beta= 0.70
     Davidson diagonalization with overlap

---- Real-time Memory Report at c_bands before calling an iterative solver
            79 MiB given to the printing process from OS
            61 MiB allocation reported by mallinfo(arena+hblkhd)
        245176 MiB available memory on the node where the printing process lives
------------------
     ethr =  1.14E-06,  avg # of iterations =  4.2

     total cpu time spent up to now is       13.7 secs

     total energy              =    -184.83180489 Ry
     estimated scf accuracy    <       0.00000577 Ry

     iteration #  9     ecut=    80.00 Ry     beta= 0.70
     Davidson diagonalization with overlap

---- Real-time Memory Report at c_bands before calling an iterative solver
            79 MiB given to the printing process from OS
            61 MiB allocation reported by mallinfo(arena+hblkhd)
        245173 MiB available memory on the node where the printing process lives
------------------
     ethr =  2.22E-08,  avg # of iterations =  5.5

     total cpu time spent up to now is       15.4 secs

     total energy              =    -184.83180802 Ry
     estimated scf accuracy    <       0.00000337 Ry

     iteration # 10     ecut=    80.00 Ry     beta= 0.70
     Davidson diagonalization with overlap

---- Real-time Memory Report at c_bands before calling an iterative solver
            79 MiB given to the printing process from OS
            61 MiB allocation reported by mallinfo(arena+hblkhd)
        245173 MiB available memory on the node where the printing process lives
------------------
     ethr =  1.30E-08,  avg # of iterations =  6.1

     total cpu time spent up to now is       17.0 secs

     total energy              =    -184.83180954 Ry
     estimated scf accuracy    <       0.00000866 Ry

     iteration # 11     ecut=    80.00 Ry     beta= 0.70
     Davidson diagonalization with overlap

---- Real-time Memory Report at c_bands before calling an iterative solver
            79 MiB given to the printing process from OS
            61 MiB allocation reported by mallinfo(arena+hblkhd)
        245172 MiB available memory on the node where the printing process lives
------------------
     ethr =  1.30E-08,  avg # of iterations =  2.4

     total cpu time spent up to now is       18.1 secs

     total energy              =    -184.83180895 Ry
     estimated scf accuracy    <       0.00000318 Ry

     iteration # 12     ecut=    80.00 Ry     beta= 0.70
     Davidson diagonalization with overlap

---- Real-time Memory Report at c_bands before calling an iterative solver
            79 MiB given to the printing process from OS
            61 MiB allocation reported by mallinfo(arena+hblkhd)
        245172 MiB available memory on the node where the printing process lives
------------------
     ethr =  1.22E-08,  avg # of iterations =  4.3

     total cpu time spent up to now is       19.5 secs

     total energy              =    -184.83180979 Ry
     estimated scf accuracy    <       0.00000012 Ry

     iteration # 13     ecut=    80.00 Ry     beta= 0.70
     Davidson diagonalization with overlap

---- Real-time Memory Report at c_bands before calling an iterative solver
            79 MiB given to the printing process from OS
            61 MiB allocation reported by mallinfo(arena+hblkhd)
        245172 MiB available memory on the node where the printing process lives
------------------
     ethr =  4.52E-10,  avg # of iterations =  4.8

     total cpu time spent up to now is       20.9 secs

     total energy              =    -184.83180972 Ry
     estimated scf accuracy    <       0.00000042 Ry

     iteration # 14     ecut=    80.00 Ry     beta= 0.70
     Davidson diagonalization with overlap

---- Real-time Memory Report at c_bands before calling an iterative solver
            79 MiB given to the printing process from OS
            61 MiB allocation reported by mallinfo(arena+hblkhd)
        245172 MiB available memory on the node where the printing process lives
------------------
     ethr =  4.52E-10,  avg # of iterations =  5.1

     total cpu time spent up to now is       22.4 secs

     total energy              =    -184.83180979 Ry
     estimated scf accuracy    <          2.2E-10 Ry

     iteration # 15     ecut=    80.00 Ry     beta= 0.70
     Davidson diagonalization with overlap

---- Real-time Memory Report at c_bands before calling an iterative solver
            79 MiB given to the printing process from OS
            61 MiB allocation reported by mallinfo(arena+hblkhd)
        245172 MiB available memory on the node where the printing process lives
------------------
     c_bands:  1 eigenvalues not converged
     ethr =  8.34E-13,  avg # of iterations = 14.5

     total cpu time spent up to now is       26.2 secs

     total energy              =    -184.83180979 Ry
     estimated scf accuracy    <       0.00000004 Ry

     iteration # 16     ecut=    80.00 Ry     beta= 0.70
     Davidson diagonalization with overlap

---- Real-time Memory Report at c_bands before calling an iterative solver
            79 MiB given to the printing process from OS
            61 MiB allocation reported by mallinfo(arena+hblkhd)
        245171 MiB available memory on the node where the printing process lives
------------------
     ethr =  8.34E-13,  avg # of iterations =  8.5

     total cpu time spent up to now is       28.7 secs

     total energy              =    -184.83180979 Ry
     estimated scf accuracy    <          1.9E-09 Ry

     iteration # 17     ecut=    80.00 Ry     beta= 0.70
     Davidson diagonalization with overlap

---- Real-time Memory Report at c_bands before calling an iterative solver
            79 MiB given to the printing process from OS
            61 MiB allocation reported by mallinfo(arena+hblkhd)
        245138 MiB available memory on the node where the printing process lives
------------------
     ethr =  8.34E-13,  avg # of iterations =  1.6

     total cpu time spent up to now is       29.6 secs

     total energy              =    -184.83180979 Ry
     estimated scf accuracy    <          1.5E-09 Ry

     iteration # 18     ecut=    80.00 Ry     beta= 0.70
     Davidson diagonalization with overlap

---- Real-time Memory Report at c_bands before calling an iterative solver
            79 MiB given to the printing process from OS
            61 MiB allocation reported by mallinfo(arena+hblkhd)
        245160 MiB available memory on the node where the printing process lives
------------------
     ethr =  8.34E-13,  avg # of iterations =  5.3

     total cpu time spent up to now is       31.1 secs

     total energy              =    -184.83180979 Ry
     estimated scf accuracy    <          8.1E-11 Ry

     iteration # 19     ecut=    80.00 Ry     beta= 0.70
     Davidson diagonalization with overlap

---- Real-time Memory Report at c_bands before calling an iterative solver
            79 MiB given to the printing process from OS
            61 MiB allocation reported by mallinfo(arena+hblkhd)
        245159 MiB available memory on the node where the printing process lives
------------------
     ethr =  3.12E-13,  avg # of iterations =  4.3

     total cpu time spent up to now is       32.5 secs

     total energy              =    -184.83180979 Ry
     estimated scf accuracy    <          1.7E-13 Ry

     iteration # 20     ecut=    80.00 Ry     beta= 0.70
     Davidson diagonalization with overlap

---- Real-time Memory Report at c_bands before calling an iterative solver
            79 MiB given to the printing process from OS
            61 MiB allocation reported by mallinfo(arena+hblkhd)
        245157 MiB available memory on the node where the printing process lives
------------------
     ethr =  1.00E-13,  avg # of iterations =  1.8

     total cpu time spent up to now is       33.5 secs

     total energy              =    -184.83180979 Ry
     estimated scf accuracy    <          1.8E-13 Ry

     iteration # 21     ecut=    80.00 Ry     beta= 0.70
     Davidson diagonalization with overlap

---- Real-time Memory Report at c_bands before calling an iterative solver
            79 MiB given to the printing process from OS
            61 MiB allocation reported by mallinfo(arena+hblkhd)
        245156 MiB available memory on the node where the printing process lives
------------------
     ethr =  1.00E-13,  avg # of iterations =  1.0

     total cpu time spent up to now is       34.4 secs

     total energy              =    -184.83180979 Ry
     estimated scf accuracy    <          2.1E-15 Ry

     iteration # 22     ecut=    80.00 Ry     beta= 0.70
     Davidson diagonalization with overlap

---- Real-time Memory Report at c_bands before calling an iterative solver
            79 MiB given to the printing process from OS
            61 MiB allocation reported by mallinfo(arena+hblkhd)
        245164 MiB available memory on the node where the printing process lives
------------------
     ethr =  1.00E-13,  avg # of iterations =  1.0

     total cpu time spent up to now is       35.4 secs

     total energy              =    -184.83180979 Ry
     estimated scf accuracy    <          1.4E-15 Ry

     iteration # 23     ecut=    80.00 Ry     beta= 0.70
     Davidson diagonalization with overlap

---- Real-time Memory Report at c_bands before calling an iterative solver
            79 MiB given to the printing process from OS
            61 MiB allocation reported by mallinfo(arena+hblkhd)
        245164 MiB available memory on the node where the printing process lives
------------------
     ethr =  1.00E-13,  avg # of iterations =  1.0

     total cpu time spent up to now is       36.3 secs

     total energy              =    -184.83180979 Ry
     estimated scf accuracy    <          1.1E-14 Ry

     iteration # 24     ecut=    80.00 Ry     beta= 0.70
     Davidson diagonalization with overlap

---- Real-time Memory Report at c_bands before calling an iterative solver
            79 MiB given to the printing process from OS
            61 MiB allocation reported by mallinfo(arena+hblkhd)
        245164 MiB available memory on the node where the printing process lives
------------------
     ethr =  1.00E-13,  avg # of iterations =  1.0

     total cpu time spent up to now is       37.2 secs

     total energy              =    -184.83180979 Ry
     estimated scf accuracy    <          1.7E-14 Ry

     iteration # 25     ecut=    80.00 Ry     beta= 0.70
     Davidson diagonalization with overlap

---- Real-time Memory Report at c_bands before calling an iterative solver
            79 MiB given to the printing process from OS
            61 MiB allocation reported by mallinfo(arena+hblkhd)
        245167 MiB available memory on the node where the printing process lives
------------------
     ethr =  1.00E-13,  avg # of iterations =  1.0

     total cpu time spent up to now is       38.2 secs

     total energy              =    -184.83180979 Ry
     estimated scf accuracy    <          6.6E-14 Ry

     iteration # 26     ecut=    80.00 Ry     beta= 0.70
     Davidson diagonalization with overlap

---- Real-time Memory Report at c_bands before calling an iterative solver
            79 MiB given to the printing process from OS
            61 MiB allocation reported by mallinfo(arena+hblkhd)
        245171 MiB available memory on the node where the printing process lives
------------------
     ethr =  1.00E-13,  avg # of iterations =  1.0

     total cpu time spent up to now is       39.1 secs

     total energy              =    -184.83180979 Ry
     estimated scf accuracy    <          8.1E-14 Ry

     iteration # 27     ecut=    80.00 Ry     beta= 0.70
     Davidson diagonalization with overlap

---- Real-time Memory Report at c_bands before calling an iterative solver
            79 MiB given to the printing process from OS
            61 MiB allocation reported by mallinfo(arena+hblkhd)
        245171 MiB available memory on the node where the printing process lives
------------------
     ethr =  1.00E-13,  avg # of iterations =  1.0

     total cpu time spent up to now is       40.1 secs

     total energy              =    -184.83180979 Ry
     estimated scf accuracy    <          1.3E-13 Ry

     iteration # 28     ecut=    80.00 Ry     beta= 0.70
     Davidson diagonalization with overlap

---- Real-time Memory Report at c_bands before calling an iterative solver
            79 MiB given to the printing process from OS
            61 MiB allocation reported by mallinfo(arena+hblkhd)
        245171 MiB available memory on the node where the printing process lives
------------------
     ethr =  1.00E-13,  avg # of iterations =  1.0

     total cpu time spent up to now is       41.0 secs

     total energy              =    -184.83180979 Ry
     estimated scf accuracy    <          1.5E-13 Ry

     iteration # 29     ecut=    80.00 Ry     beta= 0.70
     Davidson diagonalization with overlap

---- Real-time Memory Report at c_bands before calling an iterative solver
            79 MiB given to the printing process from OS
            61 MiB allocation reported by mallinfo(arena+hblkhd)
        245171 MiB available memory on the node where the printing process lives
------------------
     ethr =  1.00E-13,  avg # of iterations =  1.0

     total cpu time spent up to now is       42.0 secs

     total energy              =    -184.83180979 Ry
     estimated scf accuracy    <          1.8E-13 Ry

     iteration # 30     ecut=    80.00 Ry     beta= 0.70
     Davidson diagonalization with overlap

---- Real-time Memory Report at c_bands before calling an iterative solver
            79 MiB given to the printing process from OS
            61 MiB allocation reported by mallinfo(arena+hblkhd)
        245171 MiB available memory on the node where the printing process lives
------------------
     ethr =  1.00E-13,  avg # of iterations =  1.0

     total cpu time spent up to now is       42.9 secs

     total energy              =    -184.83180979 Ry
     estimated scf accuracy    <          2.0E-13 Ry

     iteration # 31     ecut=    80.00 Ry     beta= 0.70
     Davidson diagonalization with overlap

---- Real-time Memory Report at c_bands before calling an iterative solver
            80 MiB given to the printing process from OS
            61 MiB allocation reported by mallinfo(arena+hblkhd)
        245171 MiB available memory on the node where the printing process lives
------------------
     ethr =  1.00E-13,  avg # of iterations =  1.0

     total cpu time spent up to now is       43.8 secs

     total energy              =    -184.83180979 Ry
     estimated scf accuracy    <          2.1E-13 Ry

     iteration # 32     ecut=    80.00 Ry     beta= 0.70
     Davidson diagonalization with overlap

---- Real-time Memory Report at c_bands before calling an iterative solver
            80 MiB given to the printing process from OS
            61 MiB allocation reported by mallinfo(arena+hblkhd)
        245171 MiB available memory on the node where the printing process lives
------------------
     ethr =  1.00E-13,  avg # of iterations =  1.0

     total cpu time spent up to now is       44.8 secs

     total energy              =    -184.83180979 Ry
     estimated scf accuracy    <          2.2E-13 Ry

     iteration # 33     ecut=    80.00 Ry     beta= 0.70
     Davidson diagonalization with overlap

---- Real-time Memory Report at c_bands before calling an iterative solver
            80 MiB given to the printing process from OS
            61 MiB allocation reported by mallinfo(arena+hblkhd)
        245169 MiB available memory on the node where the printing process lives
------------------
     ethr =  1.00E-13,  avg # of iterations =  1.0

     total cpu time spent up to now is       45.7 secs

     total energy              =    -184.83180979 Ry
     estimated scf accuracy    <          2.7E-13 Ry

     iteration # 34     ecut=    80.00 Ry     beta= 0.70
     Davidson diagonalization with overlap

---- Real-time Memory Report at c_bands before calling an iterative solver
            80 MiB given to the printing process from OS
            61 MiB allocation reported by mallinfo(arena+hblkhd)
        245169 MiB available memory on the node where the printing process lives
------------------
     ethr =  1.00E-13,  avg # of iterations =  1.0

     total cpu time spent up to now is       46.7 secs

     total energy              =    -184.83180979 Ry
     estimated scf accuracy    <          5.0E-13 Ry

     iteration # 35     ecut=    80.00 Ry     beta= 0.70
     Davidson diagonalization with overlap

---- Real-time Memory Report at c_bands before calling an iterative solver
            80 MiB given to the printing process from OS
            61 MiB allocation reported by mallinfo(arena+hblkhd)
        245165 MiB available memory on the node where the printing process lives
------------------
     ethr =  1.00E-13,  avg # of iterations =  1.0

     total cpu time spent up to now is       47.6 secs

     total energy              =    -184.83180979 Ry
     estimated scf accuracy    <          5.5E-13 Ry

     iteration # 36     ecut=    80.00 Ry     beta= 0.70
     Davidson diagonalization with overlap

---- Real-time Memory Report at c_bands before calling an iterative solver
            80 MiB given to the printing process from OS
            61 MiB allocation reported by mallinfo(arena+hblkhd)
        245165 MiB available memory on the node where the printing process lives
------------------
     ethr =  1.00E-13,  avg # of iterations =  1.0

     total cpu time spent up to now is       48.5 secs

     total energy              =    -184.83180979 Ry
     estimated scf accuracy    <          5.3E-13 Ry

     iteration # 37     ecut=    80.00 Ry     beta= 0.70
     Davidson diagonalization with overlap

---- Real-time Memory Report at c_bands before calling an iterative solver
            80 MiB given to the printing process from OS
            61 MiB allocation reported by mallinfo(arena+hblkhd)
        245165 MiB available memory on the node where the printing process lives
------------------
     ethr =  1.00E-13,  avg # of iterations =  1.0

     total cpu time spent up to now is       49.5 secs

     total energy              =    -184.83180979 Ry
     estimated scf accuracy    <          5.6E-13 Ry

     iteration # 38     ecut=    80.00 Ry     beta= 0.70
     Davidson diagonalization with overlap

---- Real-time Memory Report at c_bands before calling an iterative solver
            80 MiB given to the printing process from OS
            61 MiB allocation reported by mallinfo(arena+hblkhd)
        245165 MiB available memory on the node where the printing process lives
------------------
     ethr =  1.00E-13,  avg # of iterations =  1.0

     total cpu time spent up to now is       50.4 secs

     total energy              =    -184.83180979 Ry
     estimated scf accuracy    <          3.4E-13 Ry

     iteration # 39     ecut=    80.00 Ry     beta= 0.70
     Davidson diagonalization with overlap

---- Real-time Memory Report at c_bands before calling an iterative solver
            80 MiB given to the printing process from OS
            61 MiB allocation reported by mallinfo(arena+hblkhd)
        245165 MiB available memory on the node where the printing process lives
------------------
     ethr =  1.00E-13,  avg # of iterations =  1.0

     total cpu time spent up to now is       51.4 secs

     total energy              =    -184.83180979 Ry
     estimated scf accuracy    <          4.9E-13 Ry

     iteration # 40     ecut=    80.00 Ry     beta= 0.70
     Davidson diagonalization with overlap

---- Real-time Memory Report at c_bands before calling an iterative solver
            80 MiB given to the printing process from OS
            61 MiB allocation reported by mallinfo(arena+hblkhd)
        245165 MiB available memory on the node where the printing process lives
------------------
     ethr =  1.00E-13,  avg # of iterations =  1.0

     total cpu time spent up to now is       52.3 secs

     total energy              =    -184.83180979 Ry
     estimated scf accuracy    <          1.9E-14 Ry

     iteration # 41     ecut=    80.00 Ry     beta= 0.70
     Davidson diagonalization with overlap

---- Real-time Memory Report at c_bands before calling an iterative solver
            80 MiB given to the printing process from OS
            61 MiB allocation reported by mallinfo(arena+hblkhd)
        245165 MiB available memory on the node where the printing process lives
------------------
     ethr =  1.00E-13,  avg # of iterations =  1.0

     total cpu time spent up to now is       53.2 secs

     total energy              =    -184.83180979 Ry
     estimated scf accuracy    <          1.7E-14 Ry

     iteration # 42     ecut=    80.00 Ry     beta= 0.70
     Davidson diagonalization with overlap

---- Real-time Memory Report at c_bands before calling an iterative solver
            80 MiB given to the printing process from OS
            61 MiB allocation reported by mallinfo(arena+hblkhd)
        245166 MiB available memory on the node where the printing process lives
------------------
     ethr =  1.00E-13,  avg # of iterations =  1.0

     total cpu time spent up to now is       54.2 secs

     total energy              =    -184.83180979 Ry
     estimated scf accuracy    <          1.0E-14 Ry

     iteration # 43     ecut=    80.00 Ry     beta= 0.70
     Davidson diagonalization with overlap

---- Real-time Memory Report at c_bands before calling an iterative solver
            80 MiB given to the printing process from OS
            61 MiB allocation reported by mallinfo(arena+hblkhd)
        245166 MiB available memory on the node where the printing process lives
------------------
     ethr =  1.00E-13,  avg # of iterations =  1.0

     total cpu time spent up to now is       55.1 secs

     total energy              =    -184.83180979 Ry
     estimated scf accuracy    <          3.2E-15 Ry

     iteration # 44     ecut=    80.00 Ry     beta= 0.70
     Davidson diagonalization with overlap

---- Real-time Memory Report at c_bands before calling an iterative solver
            80 MiB given to the printing process from OS
            61 MiB allocation reported by mallinfo(arena+hblkhd)
        245166 MiB available memory on the node where the printing process lives
------------------
     ethr =  1.00E-13,  avg # of iterations =  1.0

     total cpu time spent up to now is       56.0 secs

     total energy              =    -184.83180979 Ry
     estimated scf accuracy    <          1.1E-14 Ry

     iteration # 45     ecut=    80.00 Ry     beta= 0.70
     Davidson diagonalization with overlap

---- Real-time Memory Report at c_bands before calling an iterative solver
            80 MiB given to the printing process from OS
            61 MiB allocation reported by mallinfo(arena+hblkhd)
        245166 MiB available memory on the node where the printing process lives
------------------
     ethr =  1.00E-13,  avg # of iterations =  1.0

     total cpu time spent up to now is       57.0 secs

     total energy              =    -184.83180979 Ry
     estimated scf accuracy    <          2.1E-14 Ry

     iteration # 46     ecut=    80.00 Ry     beta= 0.70
     Davidson diagonalization with overlap

---- Real-time Memory Report at c_bands before calling an iterative solver
            80 MiB given to the printing process from OS
            61 MiB allocation reported by mallinfo(arena+hblkhd)
        245167 MiB available memory on the node where the printing process lives
------------------
     ethr =  1.00E-13,  avg # of iterations =  1.0

     total cpu time spent up to now is       57.9 secs

     total energy              =    -184.83180979 Ry
     estimated scf accuracy    <          4.8E-14 Ry

     iteration # 47     ecut=    80.00 Ry     beta= 0.70
     Davidson diagonalization with overlap

---- Real-time Memory Report at c_bands before calling an iterative solver
            80 MiB given to the printing process from OS
            61 MiB allocation reported by mallinfo(arena+hblkhd)
        245167 MiB available memory on the node where the printing process lives
------------------
     ethr =  1.00E-13,  avg # of iterations =  1.0

     total cpu time spent up to now is       58.8 secs

     total energy              =    -184.83180979 Ry
     estimated scf accuracy    <          5.2E-14 Ry

     iteration # 48     ecut=    80.00 Ry     beta= 0.70
     Davidson diagonalization with overlap

---- Real-time Memory Report at c_bands before calling an iterative solver
            80 MiB given to the printing process from OS
            61 MiB allocation reported by mallinfo(arena+hblkhd)
        245167 MiB available memory on the node where the printing process lives
------------------
     ethr =  1.00E-13,  avg # of iterations =  1.0

     total cpu time spent up to now is       59.7 secs

     total energy              =    -184.83180979 Ry
     estimated scf accuracy    <          5.8E-14 Ry

     iteration # 49     ecut=    80.00 Ry     beta= 0.70
     Davidson diagonalization with overlap

---- Real-time Memory Report at c_bands before calling an iterative solver
            80 MiB given to the printing process from OS
            61 MiB allocation reported by mallinfo(arena+hblkhd)
        245167 MiB available memory on the node where the printing process lives
------------------
     ethr =  1.00E-13,  avg # of iterations =  1.0

     total cpu time spent up to now is       60.6 secs

     total energy              =    -184.83180979 Ry
     estimated scf accuracy    <          2.6E-14 Ry

     iteration # 50     ecut=    80.00 Ry     beta= 0.70
     Davidson diagonalization with overlap

---- Real-time Memory Report at c_bands before calling an iterative solver
            80 MiB given to the printing process from OS
            61 MiB allocation reported by mallinfo(arena+hblkhd)
        245167 MiB available memory on the node where the printing process lives
------------------
     ethr =  1.00E-13,  avg # of iterations =  1.0

     total cpu time spent up to now is       61.6 secs

     total energy              =    -184.83180979 Ry
     estimated scf accuracy    <          1.8E-14 Ry

     iteration # 51     ecut=    80.00 Ry     beta= 0.70
     Davidson diagonalization with overlap

---- Real-time Memory Report at c_bands before calling an iterative solver
            80 MiB given to the printing process from OS
            61 MiB allocation reported by mallinfo(arena+hblkhd)
        245167 MiB available memory on the node where the printing process lives
------------------
     ethr =  1.00E-13,  avg # of iterations =  1.0

     total cpu time spent up to now is       62.5 secs

     total energy              =    -184.83180979 Ry
     estimated scf accuracy    <          1.1E-14 Ry

     iteration # 52     ecut=    80.00 Ry     beta= 0.70
     Davidson diagonalization with overlap

---- Real-time Memory Report at c_bands before calling an iterative solver
            80 MiB given to the printing process from OS
            61 MiB allocation reported by mallinfo(arena+hblkhd)
        245167 MiB available memory on the node where the printing process lives
------------------
     ethr =  1.00E-13,  avg # of iterations =  1.0

     total cpu time spent up to now is       63.5 secs

     total energy              =    -184.83180979 Ry
     estimated scf accuracy    <          6.8E-15 Ry

     iteration # 53     ecut=    80.00 Ry     beta= 0.70
     Davidson diagonalization with overlap

---- Real-time Memory Report at c_bands before calling an iterative solver
            80 MiB given to the printing process from OS
            61 MiB allocation reported by mallinfo(arena+hblkhd)
        245162 MiB available memory on the node where the printing process lives
------------------
     ethr =  1.00E-13,  avg # of iterations =  1.0

     total cpu time spent up to now is       64.3 secs

     total energy              =    -184.83180979 Ry
     estimated scf accuracy    <          3.2E-15 Ry

     iteration # 54     ecut=    80.00 Ry     beta= 0.70
     Davidson diagonalization with overlap

---- Real-time Memory Report at c_bands before calling an iterative solver
            80 MiB given to the printing process from OS
            61 MiB allocation reported by mallinfo(arena+hblkhd)
        245165 MiB available memory on the node where the printing process lives
------------------
     ethr =  1.00E-13,  avg # of iterations =  1.0

     total cpu time spent up to now is       65.3 secs

     total energy              =    -184.83180979 Ry
     estimated scf accuracy    <          1.1E-15 Ry

     iteration # 55     ecut=    80.00 Ry     beta= 0.70
     Davidson diagonalization with overlap

---- Real-time Memory Report at c_bands before calling an iterative solver
            80 MiB given to the printing process from OS
            61 MiB allocation reported by mallinfo(arena+hblkhd)
        245165 MiB available memory on the node where the printing process lives
------------------
     ethr =  1.00E-13,  avg # of iterations =  1.0

     total cpu time spent up to now is       66.2 secs

     End of self-consistent calculation

          k = 0.0000 0.0000 0.0000 ( 14903 PWs)   bands (ev):

   -66.6931 -40.8960 -40.6372 -40.6372 -20.1785 -18.8130 -11.7262  -8.6012
    -8.6012  -7.7928  -7.4461  -7.4461  -6.0182

     occupation numbers 
     1.0000   1.0000   1.0000   1.0000   1.0000   1.0000   1.0000   1.0000
     1.0000   1.0000   1.0000   1.0000   1.0000

          k = 0.0000 0.0550 0.0000 ( 14917 PWs)   bands (ev):

   -66.6921 -40.8941 -40.6470 -40.6394 -20.1427 -18.7985 -11.6854  -8.6826
    -8.5635  -8.0168  -7.5048  -7.2728  -6.0312

     occupation numbers 
     1.0000   1.0000   1.0000   1.0000   1.0000   1.0000   1.0000   1.0000
     1.0000   1.0000   1.0000   1.0000   1.0000

          k = 0.0000 0.1100 0.0000 ( 14889 PWs)   bands (ev):

   -66.6893 -40.8885 -40.6751 -40.6458 -20.0371 -18.7557 -11.5684  -8.9051
    -8.4532  -8.3760  -7.6655  -7.0806  -6.0812

     occupation numbers 
     1.0000   1.0000   1.0000   1.0000   1.0000   1.0000   1.0000   1.0000
     1.0000   1.0000   1.0000   1.0000   1.0000

          k = 0.0000 0.1650 0.0000 ( 14899 PWs)   bands (ev):

   -66.6848 -40.8798 -40.7191 -40.6558 -19.8670 -18.6867 -11.3946  -9.2138
    -8.7585  -8.2777  -7.8931  -7.0104  -6.1969

     occupation numbers 
     1.0000   1.0000   1.0000   1.0000   1.0000   1.0000   1.0000   1.0000
     1.0000   1.0000   1.0000   1.0000   1.0000

          k = 0.0000 0.2199 0.0000 ( 14839 PWs)   bands (ev):

   -66.6791 -40.8686 -40.7746 -40.6685 -19.6415 -18.5955 -11.2074  -9.5365
    -9.1484  -8.1503  -8.0505  -7.0789  -6.4007

     occupation numbers 
     1.0000   1.0000   1.0000   1.0000   1.0000   1.0000   1.0000   1.0000
     1.0000   1.0000   1.0000   1.0000   1.0000

          k = 0.0000 0.2749 0.0000 ( 14835 PWs)   bands (ev):

   -66.6727 -40.8560 -40.8366 -40.6827 -19.3734 -18.4878 -11.0924  -9.7839
    -9.5377  -8.4077  -7.7908  -7.2414  -6.6638

     occupation numbers 
     1.0000   1.0000   1.0000   1.0000   1.0000   1.0000   1.0000   1.0000
     1.0000   1.0000   1.0000   1.0000   1.0000

          k = 0.0000 0.3299 0.0000 ( 14849 PWs)   bands (ev):

   -66.6662 -40.8993 -40.8431 -40.6972 -19.0801 -18.3712 -11.1476  -9.9149
    -9.8867  -8.6445  -7.5240  -7.4320  -6.8937

     occupation numbers 
     1.0000   1.0000   1.0000   1.0000   1.0000   1.0000   1.0000   1.0000
     1.0000   1.0000   1.0000   1.0000   1.0000

          k = 0.0000 0.3849 0.0000 ( 14798 PWs)   bands (ev):

   -66.6600 -40.9574 -40.8310 -40.7107 -18.7843 -18.2557 -11.3465 -10.2614
    -9.9135  -8.8467  -7.6036  -7.2785  -6.9877

     occupation numbers 
     1.0000   1.0000   1.0000   1.0000   1.0000   1.0000   1.0000   1.0000
     1.0000   1.0000   1.0000   1.0000   1.0000

          k = 0.0000 0.4399 0.0000 ( 14772 PWs)   bands (ev):

   -66.6549 -41.0057 -40.8209 -40.7220 -18.5151 -18.1529 -11.5810 -10.5529
    -9.9704  -9.0050  -7.7344  -7.0800  -6.9164

     occupation numbers 
     1.0000   1.0000   1.0000   1.0000   1.0000   1.0000   1.0000   1.0000
     1.0000   1.0000   1.0000   1.0000   1.0000

          k = 0.0000 0.4949 0.0000 ( 14754 PWs)   bands (ev):

   -66.6511 -41.0403 -40.8135 -40.7301 -18.3061 -18.0752 -11.7759 -10.7646
   -10.0551  -9.1135  -7.8197  -6.9447  -6.7588

     occupation numbers 
     1.0000   1.0000   1.0000   1.0000   1.0000   1.0000   1.0000   1.0000
     1.0000   1.0000   1.0000   1.0000   1.0000

          k = 0.0000 0.5499 0.0000 ( 14760 PWs)   bands (ev):

   -66.6492 -41.0584 -40.8097 -40.7344 -18.1908 -18.0331 -11.8857 -10.8762
   -10.1149  -9.1685  -7.8611  -6.8774  -6.6377

     occupation numbers 
     1.0000   1.0000   1.0000   1.0000   1.0000   1.0000   1.0000   1.0000
     1.0000   1.0000   1.0000   1.0000   1.0000

          k = 0.0476 0.0825 0.0000 ( 14907 PWs)   bands (ev):

   -66.6902 -40.8903 -40.6657 -40.6439 -20.0720 -18.7698 -11.6063  -8.8339
    -8.4902  -8.2715  -7.6302  -7.1102  -6.0626

     occupation numbers 
     1.0000   1.0000   1.0000   1.0000   1.0000   1.0000   1.0000   1.0000
     1.0000   1.0000   1.0000   1.0000   1.0000

          k = 0.0476 0.1375 0.0000 ( 14892 PWs)   bands (ev):

   -66.6866 -40.8832 -40.7014 -40.6525 -19.9341 -18.7139 -11.4599  -9.0972
    -8.6041  -8.3497  -7.8598  -6.9765  -6.1454

     occupation numbers 
     1.0000   1.0000   1.0000   1.0000   1.0000   1.0000   1.0000   1.0000
     1.0000   1.0000   1.0000   1.0000   1.0000

          k = 0.0476 0.1925 0.0000 ( 14846 PWs)   bands (ev):

   -66.6815 -40.8732 -40.7504 -40.6645 -19.7362 -18.6337 -11.2753  -9.4098
    -8.9632  -8.1545  -8.1375  -6.9608  -6.3065

     occupation numbers 
     1.0000   1.0000   1.0000   1.0000   1.0000   1.0000   1.0000   1.0000
     1.0000   1.0000   1.0000   1.0000   1.0000

          k = 0.0476 0.2474 0.0000 ( 14833 PWs)   bands (ev):

   -66.6754 -40.8614 -40.8084 -40.6787 -19.4891 -18.5339 -11.1151  -9.6916
    -9.3392  -8.4144  -7.9255  -7.0674  -6.5429

     occupation numbers 
     1.0000   1.0000   1.0000   1.0000   1.0000   1.0000   1.0000   1.0000
     1.0000   1.0000   1.0000   1.0000   1.0000

          k = 0.0476 0.3024 0.0000 ( 14845 PWs)   bands (ev):

   -66.6690 -40.8699 -40.8486 -40.6939 -19.2077 -18.4212 -11.0826  -9.8521
    -9.7232  -8.6580  -7.6953  -7.2475  -6.7837

     occupation numbers 
     1.0000   1.0000   1.0000   1.0000   1.0000   1.0000   1.0000   1.0000
     1.0000   1.0000   1.0000   1.0000   1.0000

          k = 0.0476 0.3574 0.0000 ( 14818 PWs)   bands (ev):

   -66.6626 -40.9295 -40.8361 -40.7087 -18.9121 -18.3042 -11.2222 -10.0954
    -9.8876  -8.8543  -7.5083  -7.4442  -6.9066

     occupation numbers 
     1.0000   1.0000   1.0000   1.0000   1.0000   1.0000   1.0000   1.0000
     1.0000   1.0000   1.0000   1.0000   1.0000

          k = 0.0476 0.4124 0.0000 ( 14793 PWs)   bands (ev):

   -66.6570 -40.9819 -40.8250 -40.7219 -18.6279 -18.1939 -11.4452 -10.4277
    -9.9183  -9.0021  -7.6184  -7.3725  -6.8516

     occupation numbers 
     1.0000   1.0000   1.0000   1.0000   1.0000   1.0000   1.0000   1.0000
     1.0000   1.0000   1.0000   1.0000   1.0000

          k = 0.0476 0.4674 0.0000 ( 14761 PWs)   bands (ev):

   -66.6525 -41.0229 -40.8162 -40.7321 -18.3865 -18.1024 -11.6598 -10.6908
    -9.9959  -9.1043  -7.7500  -7.2436  -6.7048

     occupation numbers 
     1.0000   1.0000   1.0000   1.0000   1.0000   1.0000   1.0000   1.0000
     1.0000   1.0000   1.0000   1.0000   1.0000

          k = 0.0476 0.5224 0.0000 ( 14748 PWs)   bands (ev):

   -66.6497 -41.0488 -40.8106 -40.7387 -18.2222 -18.0414 -11.8111 -10.8600
   -10.0769  -9.1643  -7.8305  -7.1431  -6.5628

     occupation numbers 
     1.0000   1.0000   1.0000   1.0000   1.0000   1.0000   1.0000   1.0000
     1.0000   1.0000   1.0000   1.0000   1.0000

          k = 0.0476 0.5774 0.0000 ( 14764 PWs)   bands (ev):

   -66.6487 -41.0577 -40.8087 -40.7409 -18.1636 -18.0200 -11.8657 -10.9183
   -10.1101  -9.1841  -7.8575  -7.1069  -6.5031

     occupation numbers 
     1.0000   1.0000   1.0000   1.0000   1.0000   1.0000   1.0000   1.0000
     1.0000   1.0000   1.0000   1.0000   1.0000

          k = 0.0952 0.1650 0.0000 ( 14851 PWs)   bands (ev):

   -66.6823 -40.8748 -40.7413 -40.6639 -19.7683 -18.6466 -11.2996  -9.3608
    -8.8714  -8.1946  -8.1880  -6.8829  -6.2741

     occupation numbers 
     1.0000   1.0000   1.0000   1.0000   1.0000   1.0000   1.0000   1.0000
     1.0000   1.0000   1.0000   1.0000   1.0000

          k = 0.0952 0.2199 0.0000 ( 14847 PWs)   bands (ev):

   -66.6769 -40.8641 -40.7914 -40.6789 -19.5485 -18.5575 -11.1312  -9.6276
    -9.1688  -8.5428  -8.0135  -6.8867  -6.4725

     occupation numbers 
     1.0000   1.0000   1.0000   1.0000   1.0000   1.0000   1.0000   1.0000
     1.0000   1.0000   1.0000   1.0000   1.0000

          k = 0.0952 0.2749 0.0000 ( 14837 PWs)   bands (ev):

   -66.6707 -40.8521 -40.8472 -40.6958 -19.2874 -18.4519 -11.0392  -9.8092
    -9.5210  -8.8289  -7.8504  -7.0018  -6.6921

     occupation numbers 
     1.0000   1.0000   1.0000   1.0000   1.0000   1.0000   1.0000   1.0000
     1.0000   1.0000   1.0000   1.0000   1.0000

          k = 0.0952 0.3299 0.0000 ( 14845 PWs)   bands (ev):

   -66.6645 -40.9037 -40.8398 -40.7131 -19.0022 -18.3375 -11.1053  -9.9158
    -9.8521  -9.0136  -7.7617  -7.1904  -6.8219

     occupation numbers 
     1.0000   1.0000   1.0000   1.0000   1.0000   1.0000   1.0000   1.0000
     1.0000   1.0000   1.0000   1.0000   1.0000

          k = 0.0952 0.3849 0.0000 ( 14797 PWs)   bands (ev):

   -66.6586 -40.9560 -40.8282 -40.7293 -18.7154 -18.2237 -11.2877 -10.2995
    -9.8474  -9.1195  -7.7346  -7.4032  -6.7960

     occupation numbers 
     1.0000   1.0000   1.0000   1.0000   1.0000   1.0000   1.0000   1.0000
     1.0000   1.0000   1.0000   1.0000   1.0000

          k = 0.0952 0.4399 0.0000 ( 14791 PWs)   bands (ev):

   -66.6537 -40.9995 -40.8185 -40.7428 -18.4551 -18.1222 -11.4922 -10.6253
    -9.9004  -9.1721  -7.6809  -7.5999  -6.6712

     occupation numbers 
     1.0000   1.0000   1.0000   1.0000   1.0000   1.0000   1.0000   1.0000
     1.0000   1.0000   1.0000   1.0000   1.0000

          k = 0.0952 0.4949 0.0000 ( 14767 PWs)   bands (ev):

   -66.6501 -41.0307 -40.8115 -40.7526 -18.2540 -18.0452 -11.6588 -10.8608
    -9.9951  -9.1916  -7.7508  -7.6018  -6.5182

     occupation numbers 
     1.0000   1.0000   1.0000   1.0000   1.0000   1.0000   1.0000   1.0000
     1.0000   1.0000   1.0000   1.0000   1.0000

          k = 0.0952 0.5499 0.0000 ( 14745 PWs)   bands (ev):

   -66.6482 -41.0470 -40.8078 -40.7577 -18.1433 -18.0035 -11.7519 -10.9842
   -10.0638  -9.1954  -7.8330  -7.5498  -6.4084

     occupation numbers 
     1.0000   1.0000   1.0000   1.0000   1.0000   1.0000   1.0000   1.0000
     1.0000   1.0000   1.0000   1.0000   1.0000

          k = 0.1429 0.2474 0.0000 ( 14847 PWs)   bands (ev):

   -66.6714 -40.8533 -40.8384 -40.6975 -19.3144 -18.4623 -11.0240  -9.7900
    -9.3998  -8.9515  -7.9103  -6.8915  -6.6584

     occupation numbers 
     1.0000   1.0000   1.0000   1.0000   1.0000   1.0000   1.0000   1.0000
     1.0000   1.0000   1.0000   1.0000   1.0000

          k = 0.1429 0.3024 0.0000 ( 14830 PWs)   bands (ev):

   -66.6654 -40.8874 -40.8417 -40.7183 -19.0486 -18.3543 -11.0330  -9.8259
    -9.7551  -9.1902  -7.9156  -7.0038  -6.7784

     occupation numbers 
     1.0000   1.0000   1.0000   1.0000   1.0000   1.0000   1.0000   1.0000
     1.0000   1.0000   1.0000   1.0000   1.0000

          k = 0.1429 0.3574 0.0000 ( 14811 PWs)   bands (ev):

   -66.6596 -40.9344 -40.8303 -40.7391 -18.7706 -18.2417 -11.1573 -10.1788
    -9.7780  -9.2726  -8.0218  -7.1963  -6.7754

     occupation numbers 
     1.0000   1.0000   1.0000   1.0000   1.0000   1.0000   1.0000   1.0000
     1.0000   1.0000   1.0000   1.0000   1.0000

          k = 0.1429 0.4124 0.0000 ( 14799 PWs)   bands (ev):

   -66.6545 -40.9757 -40.8202 -40.7578 -18.5049 -18.1349 -11.3211 -10.5650
    -9.7776  -9.2796  -8.1057  -7.4220  -6.6794

     occupation numbers 
     1.0000   1.0000   1.0000   1.0000   1.0000   1.0000   1.0000   1.0000
     1.0000   1.0000   1.0000   1.0000   1.0000

          k = 0.1429 0.4674 0.0000 ( 14777 PWs)   bands (ev):

   -66.6505 -41.0077 -40.8122 -40.7726 -18.2811 -18.0458 -11.4671 -10.8672
    -9.8681  -9.2463  -8.1079  -7.6351  -6.5302

     occupation numbers 
     1.0000   1.0000   1.0000   1.0000   1.0000   1.0000   1.0000   1.0000
     1.0000   1.0000   1.0000   1.0000   1.0000

          k = 0.1429 0.5224 0.0000 ( 14768 PWs)   bands (ev):

   -66.6479 -41.0281 -40.8071 -40.7820 -18.1300 -17.9863 -11.5654 -11.0591
    -9.9757  -9.2031  -8.0780  -7.7915  -6.3813

     occupation numbers 
     1.0000   1.0000   1.0000   1.0000   1.0000   1.0000   1.0000   1.0000
     1.0000   1.0000   1.0000   1.0000   1.0000

          k = 0.1429 0.5774 0.0000 ( 14756 PWs)   bands (ev):

   -66.6470 -41.0351 -40.8053 -40.7853 -18.0764 -17.9653 -11.5999 -11.1249
   -10.0210  -9.1831  -8.0638  -7.8501  -6.3161

     occupation numbers 
     1.0000   1.0000   1.0000   1.0000   1.0000   1.0000   1.0000   1.0000
     1.0000   1.0000   1.0000   1.0000   1.0000

          k = 0.1905 0.3299 0.0000 ( 14825 PWs)   bands (ev):

   -66.6600 -40.9257 -40.8310 -40.7438 -18.7894 -18.2477 -11.1059 -10.1215
    -9.7467  -9.3469  -8.1344  -7.1109  -6.7712

     occupation numbers 
     1.0000   1.0000   1.0000   1.0000   1.0000   1.0000   1.0000   1.0000
     1.0000   1.0000   1.0000   1.0000   1.0000

          k = 0.1905 0.3849 0.0000 ( 14802 PWs)   bands (ev):

   -66.6549 -40.9595 -40.8210 -40.7694 -18.5311 -18.1411 -11.2101 -10.5244
    -9.6686  -9.3586  -8.3940  -7.3018  -6.6945

     occupation numbers 
     1.0000   1.0000   1.0000   1.0000   1.0000   1.0000   1.0000   1.0000
     1.0000   1.0000   1.0000   1.0000   1.0000

          k = 0.1905 0.4399 0.0000 ( 14791 PWs)   bands (ev):

   -66.6507 -40.9866 -40.8126 -40.7920 -18.2994 -18.0452 -11.3001 -10.8722
    -9.7021  -9.2993  -8.5611  -7.5302  -6.5584

     occupation numbers 
     1.0000   1.0000   1.0000   1.0000   1.0000   1.0000   1.0000   1.0000
     1.0000   1.0000   1.0000   1.0000   1.0000

          k = 0.1905 0.4949 0.0000 ( 14782 PWs)   bands (ev):

   -66.6476 -41.0054 -40.8088 -40.8066 -18.1226 -17.9719 -11.3560 -11.1232
    -9.8381  -9.2110  -8.6097  -7.7425  -6.3865

     occupation numbers 
     1.0000   1.0000   1.0000   1.0000   1.0000   1.0000   1.0000   1.0000
     1.0000   1.0000   1.0000   1.0000   1.0000

          k = 0.1905 0.5499 0.0000 ( 14778 PWs)   bands (ev):

   -66.6460 -41.0151 -40.8178 -40.8034 -18.0264 -17.9321 -11.3789 -11.2545
    -9.9510  -9.1420  -8.6120  -7.8771  -6.2556

     occupation numbers 
     1.0000   1.0000   1.0000   1.0000   1.0000   1.0000   1.0000   1.0000
     1.0000   1.0000   1.0000   1.0000   1.0000

          k = 0.2381 0.4124 0.0000 ( 14786 PWs)   bands (ev):

   -66.6507 -40.9774 -40.8128 -40.8006 -18.3059 -18.0447 -11.2325 -10.8738
    -9.5932  -9.3209  -8.7785  -7.4876  -6.5716

     occupation numbers 
     1.0000   1.0000   1.0000   1.0000   1.0000   1.0000   1.0000   1.0000
     1.0000   1.0000   1.0000   1.0000   1.0000

          k = 0.2381 0.4674 0.0000 ( 14765 PWs)   bands (ev):

   -66.6474 -40.9881 -40.8284 -40.8063 -18.1196 -17.9638 -11.2093 -11.1598
    -9.6545  -9.2171  -9.0357  -7.7079  -6.3965

     occupation numbers 
     1.0000   1.0000   1.0000   1.0000   1.0000   1.0000   1.0000   1.0000
     1.0000   1.0000   1.0000   1.0000   1.0000

          k = 0.2381 0.5224 0.0000 ( 14788 PWs)   bands (ev):

   -66.6453 -40.9928 -40.8482 -40.8022 -17.9958 -17.9093 -11.3449 -11.1540
    -9.8428  -9.1090  -9.1010  -7.9003  -6.2158

     occupation numbers 
     1.0000   1.0000   1.0000   1.0000   1.0000   1.0000   1.0000   1.0000
     1.0000   1.0000   1.0000   1.0000   1.0000

          k = 0.2381 0.5774 0.0000 ( 14800 PWs)   bands (ev):

   -66.6446 -40.9940 -40.8555 -40.8007 -17.9524 -17.8901 -11.4088 -11.1211
    -9.9415  -9.1177  -9.0459  -7.9820  -6.1337

     occupation numbers 
     1.0000   1.0000   1.0000   1.0000   1.0000   1.0000   1.0000   1.0000
     1.0000   1.0000   1.0000   1.0000   1.0000

          k = 0.2857 0.4949 0.0000 ( 14774 PWs)   bands (ev):

   -66.6451 -40.9814 -40.8624 -40.8017 -17.9856 -17.9012 -11.3772 -11.0504
    -9.7313  -9.3802  -9.0843  -7.9092  -6.2011

     occupation numbers 
     1.0000   1.0000   1.0000   1.0000   1.0000   1.0000   1.0000   1.0000
     1.0000   1.0000   1.0000   1.0000   1.0000

          k = 0.2857 0.5499 0.0000 ( 14773 PWs)   bands (ev):

   -66.6439 -40.9722 -40.8860 -40.7993 -17.9140 -17.8670 -11.4933 -10.8794
    -9.9733  -9.4531  -8.9703  -8.0597  -6.0492

     occupation numbers 
     1.0000   1.0000   1.0000   1.0000   1.0000   1.0000   1.0000   1.0000
     1.0000   1.0000   1.0000   1.0000   1.0000

          k = 0.3333 0.5774 0.0000 ( 14772 PWs)   bands (ev):

   -66.6434 -40.9567 -40.9074 -40.7984 -17.8857 -17.8520 -11.5453 -10.6799
   -10.1581  -9.5376  -8.9048  -8.1349  -5.9734

     occupation numbers 
     1.0000   1.0000   1.0000   1.0000   1.0000   1.0000   1.0000   1.0000
     1.0000   1.0000   1.0000   1.0000   1.0000

     highest occupied level (ev):    -5.9734

!    total energy              =    -184.83180979 Ry
     estimated scf accuracy    <          3.4E-16 Ry

     The total energy is the sum of the following terms:
     one-electron contribution =   -2099.89558856 Ry
     hartree contribution      =    1045.51972197 Ry
     xc contribution           =     -33.15855843 Ry
     ewald contribution        =     902.70261523 Ry

     convergence has been achieved in  55 iterations

     Writing all to output data dir ./tmp/MoS2.save/ :
     XML data file, charge density, pseudopotentials, collected wavefunctions

     init_run     :      1.57s CPU      1.80s WALL (       1 calls)
     electrons    :     61.14s CPU     64.41s WALL (       1 calls)

     Called by init_run:
     wfcinit      :      0.48s CPU      0.49s WALL (       1 calls)
     wfcinit:atom :      0.01s CPU      0.01s WALL (      48 calls)
     wfcinit:wfcr :      0.44s CPU      0.45s WALL (      48 calls)
     potinit      :      0.01s CPU      0.01s WALL (       1 calls)
     hinit0       :      0.68s CPU      0.68s WALL (       1 calls)

     Called by electrons:
     c_bands      :     52.82s CPU     55.81s WALL (      55 calls)
     sum_band     :      7.66s CPU      7.85s WALL (      55 calls)
     v_of_rho     :      0.35s CPU      0.36s WALL (      56 calls)
     v_h          :      0.02s CPU      0.02s WALL (      56 calls)
     v_xc         :      0.33s CPU      0.34s WALL (      56 calls)
     mix_rho      :      0.12s CPU      0.12s WALL (      55 calls)

     Called by c_bands:
     init_us_2    :      1.05s CPU      1.13s WALL (    5328 calls)
     cegterg      :     49.66s CPU     51.13s WALL (    2640 calls)

     Called by sum_band:
     sum_band:wei :      0.00s CPU      0.00s WALL (      55 calls)
     sum_band:loo :      7.57s CPU      7.75s WALL (      55 calls)
     sum_band:buf :      0.04s CPU      0.04s WALL (    2640 calls)
     sum_band:ini :      0.54s CPU      0.55s WALL (    2640 calls)

     Called by *egterg:
     cdiaghg      :      3.42s CPU      3.47s WALL (    9089 calls)
     cegterg:over :      1.71s CPU      1.74s WALL (    6449 calls)
     cegterg:upda :      0.43s CPU      0.44s WALL (    6449 calls)
     cegterg:last :      0.52s CPU      0.53s WALL (    4922 calls)
     h_psi        :     42.50s CPU     43.86s WALL (    9137 calls)
     g_psi        :      0.09s CPU      0.09s WALL (    6449 calls)

     Called by h_psi:
     h_psi:calbec :      2.32s CPU      2.36s WALL (    9137 calls)
     vloc_psi     :     38.76s CPU     40.06s WALL (    9137 calls)
                                        0.00s GPU  (    9137 calls)
     add_vuspsi   :      1.28s CPU      1.30s WALL (    9137 calls)

     General routines
     calbec       :      2.30s CPU      2.34s WALL (    9137 calls)
     fft          :      0.86s CPU      0.86s WALL (     560 calls)
     ffts         :      0.02s CPU      0.02s WALL (      55 calls)
     fftw         :     43.12s CPU     44.50s WALL (  212628 calls)

     Parallel routines

     PWSCF        :   1m 3.66s CPU   1m 7.51s WALL


   This run was terminated on:   1:53:50  12Mar2026            

=------------------------------------------------------------------------------=
   JOB DONE.
=------------------------------------------------------------------------------=
