
     Program PWSCF v.7.5 starts on 13Mar2026 at  9:14:27 
        Git branch: HEAD
        Last git commit: 770a0b2d12928a67048e2f3da8d10d057e52179e
        Last git commit date: Tue Aug 19 09:57:12 2025 +0000
        Last git commit subject: Merge branch 'QE-7.5-RC' into 'master'

     This program is part of the open-source Quantum ESPRESSO suite
     for quantum simulation of materials; please cite
         "P. Giannozzi et al., J. Phys.:Condens. Matter 21 395502 (2009);
         "P. Giannozzi et al., J. Phys.:Condens. Matter 29 465901 (2017);
         "P. Giannozzi et al., J. Chem. Phys. 152 154105 (2020);
          URL http://www.quantum-espresso.org", 
     in publications or presentations arising from this work. More details at
     http://www.quantum-espresso.org/quote

     Parallel version (MPI), running on    64 processors

     MPI processes distributed on     4 nodes
     244597 MiB available memory on the printing compute node when the environment starts

     Waiting for input...
     Reading input from standard input

     Current dimensions of program PWSCF are:
     Max number of different atomic species (ntypx) = 10
     Max number of k-points (npk) =  40000
     Max angular momentum in pseudopotentials (lmaxx) =  4
     Message from routine setup:
     Dynamics, you should have no symmetries

     R & G space division:  proc/nbgrp/npool/nimage =      64
     Subspace diagonalization in iterative solution of the eigenvalue problem:
     a serial algorithm will be used


     Parallelization info
     --------------------
     sticks:   dense  smooth     PW     G-vecs:    dense   smooth      PW
     Min          12      12      3                 1828     1828     275
     Max          13      13      4                 1857     1857     314
     Sum         769     769    223               118115   118115   18465

     Using Slab Decomposition



     bravais-lattice index     =            4
     lattice parameter (alat)  =       5.9418  a.u.
     unit-cell volume          =    1222.9839 (a.u.)^3
     number of atoms/cell      =            3
     number of atomic types    =            2
     number of electrons       =        26.00
     number of Kohn-Sham states=           13
     kinetic-energy cutoff     =      80.0000  Ry
     charge density cutoff     =     320.0000  Ry
     scf convergence threshold =      1.0E-15
     mixing beta               =       0.2000
     number of iterations used =            8  plain     mixing
     energy convergence thresh.=      1.0E-07
     force convergence thresh. =      1.0E-07
     Exchange-correlation= PBESOL
                           (   1   4  10   8   0   0   0)
     nstep                     =           50


     celldm(1)=   5.941759  celldm(2)=   0.000000  celldm(3)=   6.732013
     celldm(4)=   0.000000  celldm(5)=   0.000000  celldm(6)=   0.000000

     crystal axes: (cart. coord. in units of alat)
               a(1) = (   1.000000   0.000000   0.000000 )  
               a(2) = (  -0.500000   0.866025   0.000000 )  
               a(3) = (   0.000000   0.000000   6.732013 )  

     reciprocal axes: (cart. coord. in units 2 pi/alat)
               b(1) = (  1.000000  0.577350 -0.000000 )  
               b(2) = (  0.000000  1.154701  0.000000 )  
               b(3) = (  0.000000 -0.000000  0.148544 )  


     PseudoPot. # 1 for Mo read from file:
     ../pseudo/Mo.pbesol.dojo.upf
     MD5 check sum: c40353276b9086539cda6b9e5a66907b
     Pseudo is Norm-conserving + core correction, Zval = 14.0
     Generated using ONCVPSP code by D. R. Hamann
     Using radial grid of 1640 points,  6 beta functions with: 
                l(1) =   0
                l(2) =   0
                l(3) =   1
                l(4) =   1
                l(5) =   2
                l(6) =   2

     PseudoPot. # 2 for S  read from file:
     ../pseudo/S.pbesol.dojo.upf
     MD5 check sum: 501737efeeef1fb1c631cda521d4e019
     Pseudo is Norm-conserving + core correction, Zval =  6.0
     Generated using ONCVPSP code by D. R. Hamann
     Using radial grid of 1146 points,  6 beta functions with: 
                l(1) =   0
                l(2) =   0
                l(3) =   1
                l(4) =   1
                l(5) =   2
                l(6) =   2

     atomic species   valence    mass     pseudopotential
     Mo               14.00    95.95000     Mo( 1.00)
     S                 6.00    32.06500     S ( 1.00)

     12 Sym. Ops. (no inversion) found


                                    s                        frac. trans.

      isym =  1     identity                                     

 cryst.   s( 1) = (     1          0          0      )
                  (     0          1          0      )
                  (     0          0          1      )

 cart.    s( 1) = (  1.0000000  0.0000000  0.0000000 )
                  (  0.0000000  1.0000000  0.0000000 )
                  (  0.0000000  0.0000000  1.0000000 )


      isym =  2     180 deg rotation - cart. axis [0,1,0]        

 cryst.   s( 2) = (    -1          0          0      )
                  (     1          1          0      )
                  (     0          0         -1      )

 cart.    s( 2) = ( -1.0000000  0.0000000  0.0000000 )
                  (  0.0000000  1.0000000  0.0000000 )
                  (  0.0000000  0.0000000 -1.0000000 )


      isym =  3     120 deg rotation - cryst. axis [0,0,1]       

 cryst.   s( 3) = (     0          1          0      )
                  (    -1         -1          0      )
                  (     0          0          1      )

 cart.    s( 3) = ( -0.5000000 -0.8660254  0.0000000 )
                  (  0.8660254 -0.5000000  0.0000000 )
                  (  0.0000000  0.0000000  1.0000000 )


      isym =  4     120 deg rotation - cryst. axis [0,0,-1]      

 cryst.   s( 4) = (    -1         -1          0      )
                  (     1          0          0      )
                  (     0          0          1      )

 cart.    s( 4) = ( -0.5000000  0.8660254  0.0000000 )
                  ( -0.8660254 -0.5000000  0.0000000 )
                  (  0.0000000  0.0000000  1.0000000 )


      isym =  5     180 deg rotation - cryst. axis [1,-1,0]      

 cryst.   s( 5) = (     0         -1          0      )
                  (    -1          0          0      )
                  (     0          0         -1      )

 cart.    s( 5) = (  0.5000000 -0.8660254  0.0000000 )
                  ( -0.8660254 -0.5000000  0.0000000 )
                  (  0.0000000  0.0000000 -1.0000000 )


      isym =  6     180 deg rotation - cryst. axis [2,1,0]       

 cryst.   s( 6) = (     1          1          0      )
                  (     0         -1          0      )
                  (     0          0         -1      )

 cart.    s( 6) = (  0.5000000  0.8660254  0.0000000 )
                  (  0.8660254 -0.5000000  0.0000000 )
                  (  0.0000000  0.0000000 -1.0000000 )


      isym =  7     inv. 180 deg rotation - cart. axis [0,0,1]   

 cryst.   s( 7) = (     1          0          0      )
                  (     0          1          0      )
                  (     0          0         -1      )

 cart.    s( 7) = (  1.0000000  0.0000000  0.0000000 )
                  (  0.0000000  1.0000000  0.0000000 )
                  (  0.0000000  0.0000000 -1.0000000 )


      isym =  8     inv. 180 deg rotation - cart. axis [1,0,0]   

 cryst.   s( 8) = (    -1          0          0      )
                  (     1          1          0      )
                  (     0          0          1      )

 cart.    s( 8) = ( -1.0000000  0.0000000  0.0000000 )
                  (  0.0000000  1.0000000  0.0000000 )
                  (  0.0000000  0.0000000  1.0000000 )


      isym =  9     inv.  60 deg rotation - cryst. axis [0,0,1]  

 cryst.   s( 9) = (    -1         -1          0      )
                  (     1          0          0      )
                  (     0          0         -1      )

 cart.    s( 9) = ( -0.5000000  0.8660254  0.0000000 )
                  ( -0.8660254 -0.5000000  0.0000000 )
                  (  0.0000000  0.0000000 -1.0000000 )


      isym = 10     inv.  60 deg rotation - cryst. axis [0,0,-1] 

 cryst.   s(10) = (     0          1          0      )
                  (    -1         -1          0      )
                  (     0          0         -1      )

 cart.    s(10) = ( -0.5000000 -0.8660254  0.0000000 )
                  (  0.8660254 -0.5000000  0.0000000 )
                  (  0.0000000  0.0000000 -1.0000000 )


      isym = 11     inv. 180 deg rotation - cryst. axis [0,1,0]  

 cryst.   s(11) = (     1          1          0      )
                  (     0         -1          0      )
                  (     0          0          1      )

 cart.    s(11) = (  0.5000000  0.8660254  0.0000000 )
                  (  0.8660254 -0.5000000  0.0000000 )
                  (  0.0000000  0.0000000  1.0000000 )


      isym = 12     inv. 180 deg rotation - cryst. axis [1,1,0]  

 cryst.   s(12) = (     0         -1          0      )
                  (    -1          0          0      )
                  (     0          0          1      )

 cart.    s(12) = (  0.5000000 -0.8660254  0.0000000 )
                  ( -0.8660254 -0.5000000  0.0000000 )
                  (  0.0000000  0.0000000  1.0000000 )


     point group D_3h (-62m)
     there are  6 classes
     the character table:

       E     2C3   3C2   s_h   2S3   3s_v 
A'_1   1.00  1.00  1.00  1.00  1.00  1.00
A'_2   1.00  1.00 -1.00  1.00  1.00 -1.00
E'     2.00 -1.00  0.00  2.00 -1.00  0.00
A''1   1.00  1.00  1.00 -1.00 -1.00 -1.00
A''2   1.00  1.00 -1.00 -1.00 -1.00  1.00
E''    2.00 -1.00  0.00 -2.00  1.00  0.00

     the symmetry operations in each class and the name of the first element:

     E        1
          identity                                               
     2C3      3    4
          120 deg rotation - cryst. axis [0,0,1]                 
     3C2      2    6    5
          180 deg rotation - cart. axis [0,1,0]                  
     s_h      7
          inv. 180 deg rotation - cart. axis [0,0,1]             
     2S3      9   10
          inv.  60 deg rotation - cryst. axis [0,0,1]            
     3s_v     8   11   12
          inv. 180 deg rotation - cart. axis [1,0,0]             

   Cartesian axes

     site n.     atom                  positions (alat units)
         1        Mo     tau(   1) = (   0.0000000   0.5773502   3.3660064  )
         2        S      tau(   2) = (   0.5000000   0.2886751   3.8617048  )
         3        S      tau(   3) = (   0.5000000   0.2886751   2.8703080  )

     Fixed atoms
     site n.  direction
         1    0   0   0
         2    0   0   1
         3    0   0   1

   Crystallographic axes

     site n.     atom                  positions (cryst. coord.)
         1        Mo     tau(   1) = (  0.3333333  0.6666666  0.5000000  )
         2        S      tau(   2) = (  0.6666667  0.3333333  0.5736330  )
         3        S      tau(   3) = (  0.6666667  0.3333333  0.4263670  )

     number of k points=    48
                       cart. coord. in units 2pi/alat
        k(    1) = (   0.0000000   0.0000000   0.0000000), wk =   0.0045351
        k(    2) = (   0.0000000   0.0549857   0.0000000), wk =   0.0272109
        k(    3) = (   0.0000000   0.1099715   0.0000000), wk =   0.0272109
        k(    4) = (   0.0000000   0.1649572   0.0000000), wk =   0.0272109
        k(    5) = (   0.0000000   0.2199430   0.0000000), wk =   0.0272109
        k(    6) = (   0.0000000   0.2749287   0.0000000), wk =   0.0272109
        k(    7) = (   0.0000000   0.3299144   0.0000000), wk =   0.0272109
        k(    8) = (   0.0000000   0.3849002   0.0000000), wk =   0.0272109
        k(    9) = (   0.0000000   0.4398859   0.0000000), wk =   0.0272109
        k(   10) = (   0.0000000   0.4948717   0.0000000), wk =   0.0272109
        k(   11) = (   0.0000000   0.5498574   0.0000000), wk =   0.0272109
        k(   12) = (   0.0476190   0.0824786   0.0000000), wk =   0.0272109
        k(   13) = (   0.0476190   0.1374643   0.0000000), wk =   0.0544218
        k(   14) = (   0.0476190   0.1924501   0.0000000), wk =   0.0544218
        k(   15) = (   0.0476190   0.2474358   0.0000000), wk =   0.0544218
        k(   16) = (   0.0476190   0.3024216   0.0000000), wk =   0.0544218
        k(   17) = (   0.0476190   0.3574073   0.0000000), wk =   0.0544218
        k(   18) = (   0.0476190   0.4123930   0.0000000), wk =   0.0544218
        k(   19) = (   0.0476190   0.4673788   0.0000000), wk =   0.0544218
        k(   20) = (   0.0476190   0.5223645   0.0000000), wk =   0.0544218
        k(   21) = (   0.0476190   0.5773503   0.0000000), wk =   0.0272109
        k(   22) = (   0.0952381   0.1649572   0.0000000), wk =   0.0272109
        k(   23) = (   0.0952381   0.2199430   0.0000000), wk =   0.0544218
        k(   24) = (   0.0952381   0.2749287   0.0000000), wk =   0.0544218
        k(   25) = (   0.0952381   0.3299144   0.0000000), wk =   0.0544218
        k(   26) = (   0.0952381   0.3849002   0.0000000), wk =   0.0544218
        k(   27) = (   0.0952381   0.4398859   0.0000000), wk =   0.0544218
        k(   28) = (   0.0952381   0.4948717   0.0000000), wk =   0.0544218
        k(   29) = (   0.0952381   0.5498574   0.0000000), wk =   0.0544218
        k(   30) = (   0.1428571   0.2474358   0.0000000), wk =   0.0272109
        k(   31) = (   0.1428571   0.3024216   0.0000000), wk =   0.0544218
        k(   32) = (   0.1428571   0.3574073   0.0000000), wk =   0.0544218
        k(   33) = (   0.1428571   0.4123930   0.0000000), wk =   0.0544218
        k(   34) = (   0.1428571   0.4673788   0.0000000), wk =   0.0544218
        k(   35) = (   0.1428571   0.5223645   0.0000000), wk =   0.0544218
        k(   36) = (   0.1428571   0.5773503   0.0000000), wk =   0.0272109
        k(   37) = (   0.1904762   0.3299144   0.0000000), wk =   0.0272109
        k(   38) = (   0.1904762   0.3849002   0.0000000), wk =   0.0544218
        k(   39) = (   0.1904762   0.4398859   0.0000000), wk =   0.0544218
        k(   40) = (   0.1904762   0.4948717   0.0000000), wk =   0.0544218
        k(   41) = (   0.1904762   0.5498574   0.0000000), wk =   0.0544218
        k(   42) = (   0.2380952   0.4123930   0.0000000), wk =   0.0272109
        k(   43) = (   0.2380952   0.4673788   0.0000000), wk =   0.0544218
        k(   44) = (   0.2380952   0.5223645   0.0000000), wk =   0.0544218
        k(   45) = (   0.2380952   0.5773503   0.0000000), wk =   0.0272109
        k(   46) = (   0.2857143   0.4948717   0.0000000), wk =   0.0272109
        k(   47) = (   0.2857143   0.5498574   0.0000000), wk =   0.0544218
        k(   48) = (   0.3333333   0.5773503   0.0000000), wk =   0.0090703

                       cryst. coord.
        k(    1) = (   0.0000000   0.0000000   0.0000000), wk =   0.0045351
        k(    2) = (   0.0000000   0.0476190   0.0000000), wk =   0.0272109
        k(    3) = (   0.0000000   0.0952381   0.0000000), wk =   0.0272109
        k(    4) = (   0.0000000   0.1428571   0.0000000), wk =   0.0272109
        k(    5) = (   0.0000000   0.1904762   0.0000000), wk =   0.0272109
        k(    6) = (   0.0000000   0.2380952   0.0000000), wk =   0.0272109
        k(    7) = (   0.0000000   0.2857143   0.0000000), wk =   0.0272109
        k(    8) = (   0.0000000   0.3333333   0.0000000), wk =   0.0272109
        k(    9) = (   0.0000000   0.3809524   0.0000000), wk =   0.0272109
        k(   10) = (   0.0000000   0.4285714   0.0000000), wk =   0.0272109
        k(   11) = (   0.0000000   0.4761905   0.0000000), wk =   0.0272109
        k(   12) = (   0.0476190   0.0476190   0.0000000), wk =   0.0272109
        k(   13) = (   0.0476190   0.0952381   0.0000000), wk =   0.0544218
        k(   14) = (   0.0476190   0.1428571   0.0000000), wk =   0.0544218
        k(   15) = (   0.0476190   0.1904762   0.0000000), wk =   0.0544218
        k(   16) = (   0.0476190   0.2380952   0.0000000), wk =   0.0544218
        k(   17) = (   0.0476190   0.2857143   0.0000000), wk =   0.0544218
        k(   18) = (   0.0476190   0.3333333   0.0000000), wk =   0.0544218
        k(   19) = (   0.0476190   0.3809524   0.0000000), wk =   0.0544218
        k(   20) = (   0.0476190   0.4285714   0.0000000), wk =   0.0544218
        k(   21) = (   0.0476190   0.4761905   0.0000000), wk =   0.0272109
        k(   22) = (   0.0952381   0.0952381   0.0000000), wk =   0.0272109
        k(   23) = (   0.0952381   0.1428571   0.0000000), wk =   0.0544218
        k(   24) = (   0.0952381   0.1904762   0.0000000), wk =   0.0544218
        k(   25) = (   0.0952381   0.2380952   0.0000000), wk =   0.0544218
        k(   26) = (   0.0952381   0.2857143   0.0000000), wk =   0.0544218
        k(   27) = (   0.0952381   0.3333333   0.0000000), wk =   0.0544218
        k(   28) = (   0.0952381   0.3809524   0.0000000), wk =   0.0544218
        k(   29) = (   0.0952381   0.4285714   0.0000000), wk =   0.0544218
        k(   30) = (   0.1428571   0.1428571   0.0000000), wk =   0.0272109
        k(   31) = (   0.1428571   0.1904762   0.0000000), wk =   0.0544218
        k(   32) = (   0.1428571   0.2380952   0.0000000), wk =   0.0544218
        k(   33) = (   0.1428571   0.2857143   0.0000000), wk =   0.0544218
        k(   34) = (   0.1428571   0.3333333   0.0000000), wk =   0.0544218
        k(   35) = (   0.1428571   0.3809524   0.0000000), wk =   0.0544218
        k(   36) = (   0.1428571   0.4285714   0.0000000), wk =   0.0272109
        k(   37) = (   0.1904762   0.1904762   0.0000000), wk =   0.0272109
        k(   38) = (   0.1904762   0.2380952   0.0000000), wk =   0.0544218
        k(   39) = (   0.1904762   0.2857143   0.0000000), wk =   0.0544218
        k(   40) = (   0.1904762   0.3333333   0.0000000), wk =   0.0544218
        k(   41) = (   0.1904762   0.3809524   0.0000000), wk =   0.0544218
        k(   42) = (   0.2380952   0.2380952   0.0000000), wk =   0.0272109
        k(   43) = (   0.2380952   0.2857143   0.0000000), wk =   0.0544218
        k(   44) = (   0.2380952   0.3333333   0.0000000), wk =   0.0544218
        k(   45) = (   0.2380952   0.3809524   0.0000000), wk =   0.0272109
        k(   46) = (   0.2857143   0.2857143   0.0000000), wk =   0.0272109
        k(   47) = (   0.2857143   0.3333333   0.0000000), wk =   0.0544218
        k(   48) = (   0.3333333   0.3333333   0.0000000), wk =   0.0090703

     Dense  grid:   118115 G-vectors     FFT dimensions: (  36,  36, 240)

     Dynamical RAM for                 wfc:       0.05 MB

     Dynamical RAM for     wfc (w. buffer):       2.24 MB

     Dynamical RAM for           str. fact:       0.06 MB

     Dynamical RAM for           local pot:       0.00 MB

     Dynamical RAM for          nlocal pot:       0.19 MB

     Dynamical RAM for                qrad:       2.87 MB

     Dynamical RAM for          rho,v,vnew:       0.20 MB

     Dynamical RAM for               rhoin:       0.07 MB

     Dynamical RAM for            rho*nmix:       0.45 MB

     Dynamical RAM for           G-vectors:       0.12 MB

     Dynamical RAM for          h,s,v(r/c):       0.03 MB

     Dynamical RAM for          <psi|beta>:       0.01 MB

     Dynamical RAM for                 psi:       0.09 MB

     Dynamical RAM for                hpsi:       0.09 MB

     Dynamical RAM for      wfcinit/wfcrot:       0.10 MB

     Estimated static dynamical RAM per process >       6.03 MB

     Estimated max dynamical RAM per process >       6.70 MB

     Estimated total dynamical RAM >     429.04 MB
 ----2D----2D----2D----2D----2D----2D----2D----2D----2D----2D----2D----2D
  The code is running with the 2D cutoff
  Please refer to:
  Sohier, T., Calandra, M., & Mauri, F. (2017), 
  Density functional perturbation theory for gated two-dimensional heterostructures:
  Theoretical developments and application to flexural phonons in graphene.
  Physical Review B, 96(7), 75448. https://doi.org/10.1103/PhysRevB.96.075448
 ----2D----2D----2D----2D----2D----2D----2D----2D----2D----2D----2D----2D
     Cannot read rho : file not found

     Initial potential from superposition of free atoms

     starting charge      25.9986, renormalised to      26.0000

     negative rho (up, down):  3.015E-05 0.000E+00
     Starting wfcs are   18 randomized atomic wfcs

     total cpu time spent up to now is       22.9 secs

     per-process dynamical memory:    61.3 Mb

     Self-consistent Calculation

     iteration #  1     ecut=    80.00 Ry     beta= 0.20
     Davidson diagonalization with overlap

---- Real-time Memory Report at c_bands before calling an iterative solver
            76 MiB given to the printing process from OS
            59 MiB allocation reported by mallinfo(arena+hblkhd)
        244325 MiB available memory on the node where the printing process lives
------------------
     ethr =  1.00E-05,  avg # of iterations = 11.6

     negative rho (up, down):  2.351E-05 0.000E+00

     total cpu time spent up to now is       26.3 secs

     total energy              =    -184.80512146 Ry
     estimated scf accuracy    <       0.42204601 Ry

     iteration #  2     ecut=    80.00 Ry     beta= 0.20
     Davidson diagonalization with overlap

---- Real-time Memory Report at c_bands before calling an iterative solver
            79 MiB given to the printing process from OS
            60 MiB allocation reported by mallinfo(arena+hblkhd)
        244287 MiB available memory on the node where the printing process lives
------------------
     ethr =  1.62E-03,  avg # of iterations =  2.0

     negative rho (up, down):  1.224E-05 0.000E+00

     total cpu time spent up to now is       27.4 secs

     total energy              =    -184.82577316 Ry
     estimated scf accuracy    <       0.07890572 Ry

     iteration #  3     ecut=    80.00 Ry     beta= 0.20
     Davidson diagonalization with overlap

---- Real-time Memory Report at c_bands before calling an iterative solver
            79 MiB given to the printing process from OS
            60 MiB allocation reported by mallinfo(arena+hblkhd)
        244305 MiB available memory on the node where the printing process lives
------------------
     ethr =  3.03E-04,  avg # of iterations =  2.4

     negative rho (up, down):  4.572E-06 0.000E+00

     total cpu time spent up to now is       28.5 secs

     total energy              =    -184.82385324 Ry
     estimated scf accuracy    <       0.02383353 Ry

     iteration #  4     ecut=    80.00 Ry     beta= 0.20
     Davidson diagonalization with overlap

---- Real-time Memory Report at c_bands before calling an iterative solver
            79 MiB given to the printing process from OS
            60 MiB allocation reported by mallinfo(arena+hblkhd)
        244304 MiB available memory on the node where the printing process lives
------------------
     ethr =  9.17E-05,  avg # of iterations =  4.2

     negative rho (up, down):  3.265E-06 0.000E+00

     total cpu time spent up to now is       29.8 secs

     total energy              =    -184.83065014 Ry
     estimated scf accuracy    <       0.00578744 Ry

     iteration #  5     ecut=    80.00 Ry     beta= 0.20
     Davidson diagonalization with overlap

---- Real-time Memory Report at c_bands before calling an iterative solver
            80 MiB given to the printing process from OS
            60 MiB allocation reported by mallinfo(arena+hblkhd)
        244304 MiB available memory on the node where the printing process lives
------------------
     ethr =  2.23E-05,  avg # of iterations =  4.0

     negative rho (up, down):  9.497E-08 0.000E+00

     total cpu time spent up to now is       31.2 secs

     total energy              =    -184.83207059 Ry
     estimated scf accuracy    <       0.00200486 Ry

     iteration #  6     ecut=    80.00 Ry     beta= 0.20
     Davidson diagonalization with overlap

---- Real-time Memory Report at c_bands before calling an iterative solver
            80 MiB given to the printing process from OS
            60 MiB allocation reported by mallinfo(arena+hblkhd)
        244303 MiB available memory on the node where the printing process lives
------------------
     ethr =  7.71E-06,  avg # of iterations =  4.3

     negative rho (up, down):  3.274E-08 0.000E+00

     total cpu time spent up to now is       32.5 secs

     total energy              =    -184.83103338 Ry
     estimated scf accuracy    <       0.00461236 Ry

     iteration #  7     ecut=    80.00 Ry     beta= 0.20
     Davidson diagonalization with overlap

---- Real-time Memory Report at c_bands before calling an iterative solver
            80 MiB given to the printing process from OS
            60 MiB allocation reported by mallinfo(arena+hblkhd)
        244302 MiB available memory on the node where the printing process lives
------------------
     ethr =  7.71E-06,  avg # of iterations =  4.4

     negative rho (up, down):  3.154E-08 0.000E+00

     total cpu time spent up to now is       33.9 secs

     total energy              =    -184.83178658 Ry
     estimated scf accuracy    <       0.00001174 Ry

     iteration #  8     ecut=    80.00 Ry     beta= 0.20
     Davidson diagonalization with overlap

---- Real-time Memory Report at c_bands before calling an iterative solver
            80 MiB given to the printing process from OS
            61 MiB allocation reported by mallinfo(arena+hblkhd)
        244301 MiB available memory on the node where the printing process lives
------------------
     ethr =  4.52E-08,  avg # of iterations =  9.5

     negative rho (up, down):  5.018E-08 0.000E+00

     total cpu time spent up to now is       36.5 secs

     total energy              =    -184.83178033 Ry
     estimated scf accuracy    <       0.00030167 Ry

     iteration #  9     ecut=    80.00 Ry     beta= 0.20
     Davidson diagonalization with overlap

---- Real-time Memory Report at c_bands before calling an iterative solver
            80 MiB given to the printing process from OS
            61 MiB allocation reported by mallinfo(arena+hblkhd)
        244303 MiB available memory on the node where the printing process lives
------------------
     ethr =  4.52E-08,  avg # of iterations =  7.1

     total cpu time spent up to now is       38.6 secs

     total energy              =    -184.83182927 Ry
     estimated scf accuracy    <       0.00000631 Ry

     iteration # 10     ecut=    80.00 Ry     beta= 0.20
     Davidson diagonalization with overlap

---- Real-time Memory Report at c_bands before calling an iterative solver
            80 MiB given to the printing process from OS
            61 MiB allocation reported by mallinfo(arena+hblkhd)
        244302 MiB available memory on the node where the printing process lives
------------------
     ethr =  2.43E-08,  avg # of iterations =  1.4

     total cpu time spent up to now is       39.5 secs

     total energy              =    -184.83182915 Ry
     estimated scf accuracy    <       0.00000468 Ry

     iteration # 11     ecut=    80.00 Ry     beta= 0.20
     Davidson diagonalization with overlap

---- Real-time Memory Report at c_bands before calling an iterative solver
            80 MiB given to the printing process from OS
            61 MiB allocation reported by mallinfo(arena+hblkhd)
        244300 MiB available memory on the node where the printing process lives
------------------
     ethr =  1.80E-08,  avg # of iterations =  1.0

     total cpu time spent up to now is       40.4 secs

     total energy              =    -184.83182754 Ry
     estimated scf accuracy    <       0.00000412 Ry

     iteration # 12     ecut=    80.00 Ry     beta= 0.20
     Davidson diagonalization with overlap

---- Real-time Memory Report at c_bands before calling an iterative solver
            80 MiB given to the printing process from OS
            61 MiB allocation reported by mallinfo(arena+hblkhd)
        244301 MiB available memory on the node where the printing process lives
------------------
     ethr =  1.58E-08,  avg # of iterations =  3.6

     total cpu time spent up to now is       41.6 secs

     total energy              =    -184.83182852 Ry
     estimated scf accuracy    <       0.00000007 Ry

     iteration # 13     ecut=    80.00 Ry     beta= 0.20
     Davidson diagonalization with overlap

---- Real-time Memory Report at c_bands before calling an iterative solver
            80 MiB given to the printing process from OS
            61 MiB allocation reported by mallinfo(arena+hblkhd)
        244301 MiB available memory on the node where the printing process lives
------------------
     ethr =  2.78E-10,  avg # of iterations =  7.7

     total cpu time spent up to now is       43.8 secs

     total energy              =    -184.83182894 Ry
     estimated scf accuracy    <       0.00000175 Ry

     iteration # 14     ecut=    80.00 Ry     beta= 0.20
     Davidson diagonalization with overlap

---- Real-time Memory Report at c_bands before calling an iterative solver
            80 MiB given to the printing process from OS
            61 MiB allocation reported by mallinfo(arena+hblkhd)
        244298 MiB available memory on the node where the printing process lives
------------------
     ethr =  2.78E-10,  avg # of iterations =  3.9

     total cpu time spent up to now is       45.1 secs

     total energy              =    -184.83183091 Ry
     estimated scf accuracy    <       0.00000286 Ry

     iteration # 15     ecut=    80.00 Ry     beta= 0.20
     Davidson diagonalization with overlap

---- Real-time Memory Report at c_bands before calling an iterative solver
            80 MiB given to the printing process from OS
            61 MiB allocation reported by mallinfo(arena+hblkhd)
        244299 MiB available memory on the node where the printing process lives
------------------
     ethr =  2.78E-10,  avg # of iterations =  9.3

     total cpu time spent up to now is       47.7 secs

     total energy              =    -184.83183435 Ry
     estimated scf accuracy    <       0.00002715 Ry

     iteration # 16     ecut=    80.00 Ry     beta= 0.20
     Davidson diagonalization with overlap

---- Real-time Memory Report at c_bands before calling an iterative solver
            80 MiB given to the printing process from OS
            61 MiB allocation reported by mallinfo(arena+hblkhd)
        244299 MiB available memory on the node where the printing process lives
------------------
     ethr =  2.78E-10,  avg # of iterations =  7.0

     total cpu time spent up to now is       49.6 secs

     total energy              =    -184.83183241 Ry
     estimated scf accuracy    <       0.00004109 Ry

     iteration # 17     ecut=    80.00 Ry     beta= 0.20
     Davidson diagonalization with overlap

---- Real-time Memory Report at c_bands before calling an iterative solver
            80 MiB given to the printing process from OS
            61 MiB allocation reported by mallinfo(arena+hblkhd)
        244301 MiB available memory on the node where the printing process lives
------------------
     ethr =  2.78E-10,  avg # of iterations =  6.2

     total cpu time spent up to now is       51.5 secs

     total energy              =    -184.83183269 Ry
     estimated scf accuracy    <       0.00002919 Ry

     iteration # 18     ecut=    80.00 Ry     beta= 0.20
     Davidson diagonalization with overlap

---- Real-time Memory Report at c_bands before calling an iterative solver
            80 MiB given to the printing process from OS
            61 MiB allocation reported by mallinfo(arena+hblkhd)
        244302 MiB available memory on the node where the printing process lives
------------------
     ethr =  2.78E-10,  avg # of iterations =  1.0

     total cpu time spent up to now is       52.4 secs

     total energy              =    -184.83183562 Ry
     estimated scf accuracy    <       0.00002939 Ry

     iteration # 19     ecut=    80.00 Ry     beta= 0.20
     Davidson diagonalization with overlap

---- Real-time Memory Report at c_bands before calling an iterative solver
            80 MiB given to the printing process from OS
            61 MiB allocation reported by mallinfo(arena+hblkhd)
        244302 MiB available memory on the node where the printing process lives
------------------
     ethr =  2.78E-10,  avg # of iterations =  7.5

     negative rho (up, down):  7.277E-08 0.000E+00

     total cpu time spent up to now is       54.4 secs

     total energy              =    -184.83182712 Ry
     estimated scf accuracy    <       0.00005140 Ry

     iteration # 20     ecut=    80.00 Ry     beta= 0.20
     Davidson diagonalization with overlap

---- Real-time Memory Report at c_bands before calling an iterative solver
            80 MiB given to the printing process from OS
            61 MiB allocation reported by mallinfo(arena+hblkhd)
        244302 MiB available memory on the node where the printing process lives
------------------
     ethr =  2.78E-10,  avg # of iterations = 10.3

     negative rho (up, down):  3.455E-08 0.000E+00

     total cpu time spent up to now is       57.3 secs

     total energy              =    -184.83183150 Ry
     estimated scf accuracy    <       0.00000725 Ry

     iteration # 21     ecut=    80.00 Ry     beta= 0.20
     Davidson diagonalization with overlap

---- Real-time Memory Report at c_bands before calling an iterative solver
            80 MiB given to the printing process from OS
            61 MiB allocation reported by mallinfo(arena+hblkhd)
        244302 MiB available memory on the node where the printing process lives
------------------
     ethr =  2.78E-10,  avg # of iterations =  8.1

     negative rho (up, down):  9.258E-08 0.000E+00

     total cpu time spent up to now is       59.5 secs

     total energy              =    -184.83182316 Ry
     estimated scf accuracy    <       0.00002485 Ry

     iteration # 22     ecut=    80.00 Ry     beta= 0.20
     Davidson diagonalization with overlap

---- Real-time Memory Report at c_bands before calling an iterative solver
            80 MiB given to the printing process from OS
            61 MiB allocation reported by mallinfo(arena+hblkhd)
        244302 MiB available memory on the node where the printing process lives
------------------
     ethr =  2.78E-10,  avg # of iterations = 11.9

     total cpu time spent up to now is       62.8 secs

     total energy              =    -184.83182761 Ry
     estimated scf accuracy    <       0.00000424 Ry

     iteration # 23     ecut=    80.00 Ry     beta= 0.20
     Davidson diagonalization with overlap

---- Real-time Memory Report at c_bands before calling an iterative solver
            80 MiB given to the printing process from OS
            61 MiB allocation reported by mallinfo(arena+hblkhd)
        244301 MiB available memory on the node where the printing process lives
------------------
     ethr =  2.78E-10,  avg # of iterations =  8.7

     total cpu time spent up to now is       65.2 secs

     total energy              =    -184.83182848 Ry
     estimated scf accuracy    <       0.00000059 Ry

     iteration # 24     ecut=    80.00 Ry     beta= 0.20
     Davidson diagonalization with overlap

---- Real-time Memory Report at c_bands before calling an iterative solver
            80 MiB given to the printing process from OS
            61 MiB allocation reported by mallinfo(arena+hblkhd)
        244304 MiB available memory on the node where the printing process lives
------------------
     ethr =  2.78E-10,  avg # of iterations =  4.5

     total cpu time spent up to now is       66.5 secs

     total energy              =    -184.83182847 Ry
     estimated scf accuracy    <       0.00000011 Ry

     iteration # 25     ecut=    80.00 Ry     beta= 0.20
     Davidson diagonalization with overlap

---- Real-time Memory Report at c_bands before calling an iterative solver
            80 MiB given to the printing process from OS
            61 MiB allocation reported by mallinfo(arena+hblkhd)
        244310 MiB available memory on the node where the printing process lives
------------------
     ethr =  2.78E-10,  avg # of iterations =  4.8

     total cpu time spent up to now is       68.0 secs

     total energy              =    -184.83182851 Ry
     estimated scf accuracy    <       0.00000003 Ry

     iteration # 26     ecut=    80.00 Ry     beta= 0.20
     Davidson diagonalization with overlap

---- Real-time Memory Report at c_bands before calling an iterative solver
            80 MiB given to the printing process from OS
            61 MiB allocation reported by mallinfo(arena+hblkhd)
        244310 MiB available memory on the node where the printing process lives
------------------
     ethr =  1.06E-10,  avg # of iterations =  1.3

     total cpu time spent up to now is       69.0 secs

     total energy              =    -184.83182850 Ry
     estimated scf accuracy    <       0.00000002 Ry

     iteration # 27     ecut=    80.00 Ry     beta= 0.20
     Davidson diagonalization with overlap

---- Real-time Memory Report at c_bands before calling an iterative solver
            80 MiB given to the printing process from OS
            61 MiB allocation reported by mallinfo(arena+hblkhd)
        244310 MiB available memory on the node where the printing process lives
------------------
     ethr =  9.27E-11,  avg # of iterations =  2.7

     total cpu time spent up to now is       70.0 secs

     total energy              =    -184.83182851 Ry
     estimated scf accuracy    <          1.9E-09 Ry

     iteration # 28     ecut=    80.00 Ry     beta= 0.20
     Davidson diagonalization with overlap

---- Real-time Memory Report at c_bands before calling an iterative solver
            80 MiB given to the printing process from OS
            61 MiB allocation reported by mallinfo(arena+hblkhd)
        244310 MiB available memory on the node where the printing process lives
------------------
     ethr =  7.15E-12,  avg # of iterations =  4.4

     total cpu time spent up to now is       71.4 secs

     total energy              =    -184.83182851 Ry
     estimated scf accuracy    <          2.4E-10 Ry

     iteration # 29     ecut=    80.00 Ry     beta= 0.20
     Davidson diagonalization with overlap

---- Real-time Memory Report at c_bands before calling an iterative solver
            80 MiB given to the printing process from OS
            61 MiB allocation reported by mallinfo(arena+hblkhd)
        244310 MiB available memory on the node where the printing process lives
------------------
     ethr =  9.09E-13,  avg # of iterations =  3.8

     total cpu time spent up to now is       72.6 secs

     total energy              =    -184.83182851 Ry
     estimated scf accuracy    <          1.1E-10 Ry

     iteration # 30     ecut=    80.00 Ry     beta= 0.20
     Davidson diagonalization with overlap

---- Real-time Memory Report at c_bands before calling an iterative solver
            80 MiB given to the printing process from OS
            61 MiB allocation reported by mallinfo(arena+hblkhd)
        244310 MiB available memory on the node where the printing process lives
------------------
     ethr =  4.41E-13,  avg # of iterations =  7.9

     total cpu time spent up to now is       74.8 secs

     total energy              =    -184.83182851 Ry
     estimated scf accuracy    <          6.5E-09 Ry

     iteration # 31     ecut=    80.00 Ry     beta= 0.20
     Davidson diagonalization with overlap

---- Real-time Memory Report at c_bands before calling an iterative solver
            80 MiB given to the printing process from OS
            61 MiB allocation reported by mallinfo(arena+hblkhd)
        244310 MiB available memory on the node where the printing process lives
------------------
     ethr =  4.41E-13,  avg # of iterations =  7.8

     total cpu time spent up to now is       76.9 secs

     total energy              =    -184.83182851 Ry
     estimated scf accuracy    <       0.00000002 Ry

     iteration # 32     ecut=    80.00 Ry     beta= 0.20
     Davidson diagonalization with overlap

---- Real-time Memory Report at c_bands before calling an iterative solver
            80 MiB given to the printing process from OS
            61 MiB allocation reported by mallinfo(arena+hblkhd)
        244311 MiB available memory on the node where the printing process lives
------------------
     ethr =  4.41E-13,  avg # of iterations =  7.9

     total cpu time spent up to now is       79.1 secs

     total energy              =    -184.83182851 Ry
     estimated scf accuracy    <          3.2E-09 Ry

     iteration # 33     ecut=    80.00 Ry     beta= 0.20
     Davidson diagonalization with overlap

---- Real-time Memory Report at c_bands before calling an iterative solver
            80 MiB given to the printing process from OS
            61 MiB allocation reported by mallinfo(arena+hblkhd)
        244302 MiB available memory on the node where the printing process lives
------------------
     ethr =  4.41E-13,  avg # of iterations =  5.8

     total cpu time spent up to now is       80.7 secs

     total energy              =    -184.83182851 Ry
     estimated scf accuracy    <          5.8E-10 Ry

     iteration # 34     ecut=    80.00 Ry     beta= 0.20
     Davidson diagonalization with overlap

---- Real-time Memory Report at c_bands before calling an iterative solver
            80 MiB given to the printing process from OS
            61 MiB allocation reported by mallinfo(arena+hblkhd)
        244302 MiB available memory on the node where the printing process lives
------------------
     ethr =  4.41E-13,  avg # of iterations =  1.0

     total cpu time spent up to now is       81.6 secs

     total energy              =    -184.83182851 Ry
     estimated scf accuracy    <          5.5E-10 Ry

     iteration # 35     ecut=    80.00 Ry     beta= 0.20
     Davidson diagonalization with overlap

---- Real-time Memory Report at c_bands before calling an iterative solver
            80 MiB given to the printing process from OS
            61 MiB allocation reported by mallinfo(arena+hblkhd)
        244302 MiB available memory on the node where the printing process lives
------------------
     ethr =  4.41E-13,  avg # of iterations =  1.0

     total cpu time spent up to now is       82.6 secs

     total energy              =    -184.83182851 Ry
     estimated scf accuracy    <          5.1E-10 Ry

     iteration # 36     ecut=    80.00 Ry     beta= 0.20
     Davidson diagonalization with overlap

---- Real-time Memory Report at c_bands before calling an iterative solver
            80 MiB given to the printing process from OS
            61 MiB allocation reported by mallinfo(arena+hblkhd)
        244302 MiB available memory on the node where the printing process lives
------------------
     ethr =  4.41E-13,  avg # of iterations =  2.4

     total cpu time spent up to now is       83.6 secs

     total energy              =    -184.83182851 Ry
     estimated scf accuracy    <          2.9E-10 Ry

     iteration # 37     ecut=    80.00 Ry     beta= 0.20
     Davidson diagonalization with overlap

---- Real-time Memory Report at c_bands before calling an iterative solver
            80 MiB given to the printing process from OS
            61 MiB allocation reported by mallinfo(arena+hblkhd)
        244302 MiB available memory on the node where the printing process lives
------------------
     ethr =  4.41E-13,  avg # of iterations =  4.5

     total cpu time spent up to now is       85.0 secs

     total energy              =    -184.83182851 Ry
     estimated scf accuracy    <          8.1E-12 Ry

     iteration # 38     ecut=    80.00 Ry     beta= 0.20
     Davidson diagonalization with overlap

---- Real-time Memory Report at c_bands before calling an iterative solver
            80 MiB given to the printing process from OS
            61 MiB allocation reported by mallinfo(arena+hblkhd)
        244302 MiB available memory on the node where the printing process lives
------------------
     ethr =  1.00E-13,  avg # of iterations =  2.2

     total cpu time spent up to now is       86.0 secs

     total energy              =    -184.83182851 Ry
     estimated scf accuracy    <          7.0E-12 Ry

     iteration # 39     ecut=    80.00 Ry     beta= 0.20
     Davidson diagonalization with overlap

---- Real-time Memory Report at c_bands before calling an iterative solver
            80 MiB given to the printing process from OS
            61 MiB allocation reported by mallinfo(arena+hblkhd)
        244307 MiB available memory on the node where the printing process lives
------------------
     ethr =  1.00E-13,  avg # of iterations =  1.0

     total cpu time spent up to now is       86.9 secs

     total energy              =    -184.83182851 Ry
     estimated scf accuracy    <          2.4E-12 Ry

     iteration # 40     ecut=    80.00 Ry     beta= 0.20
     Davidson diagonalization with overlap

---- Real-time Memory Report at c_bands before calling an iterative solver
            80 MiB given to the printing process from OS
            61 MiB allocation reported by mallinfo(arena+hblkhd)
        244307 MiB available memory on the node where the printing process lives
------------------
     ethr =  1.00E-13,  avg # of iterations =  1.0

     total cpu time spent up to now is       87.9 secs

     total energy              =    -184.83182851 Ry
     estimated scf accuracy    <          4.3E-13 Ry

     iteration # 41     ecut=    80.00 Ry     beta= 0.20
     Davidson diagonalization with overlap

---- Real-time Memory Report at c_bands before calling an iterative solver
            80 MiB given to the printing process from OS
            61 MiB allocation reported by mallinfo(arena+hblkhd)
        244307 MiB available memory on the node where the printing process lives
------------------
     ethr =  1.00E-13,  avg # of iterations =  1.0

     total cpu time spent up to now is       88.8 secs

     total energy              =    -184.83182851 Ry
     estimated scf accuracy    <          2.9E-14 Ry

     iteration # 42     ecut=    80.00 Ry     beta= 0.20
     Davidson diagonalization with overlap

---- Real-time Memory Report at c_bands before calling an iterative solver
            80 MiB given to the printing process from OS
            61 MiB allocation reported by mallinfo(arena+hblkhd)
        244307 MiB available memory on the node where the printing process lives
------------------
     ethr =  1.00E-13,  avg # of iterations =  1.0

     total cpu time spent up to now is       89.7 secs

     total energy              =    -184.83182851 Ry
     estimated scf accuracy    <          7.2E-14 Ry

     iteration # 43     ecut=    80.00 Ry     beta= 0.20
     Davidson diagonalization with overlap

---- Real-time Memory Report at c_bands before calling an iterative solver
            80 MiB given to the printing process from OS
            61 MiB allocation reported by mallinfo(arena+hblkhd)
        244307 MiB available memory on the node where the printing process lives
------------------
     ethr =  1.00E-13,  avg # of iterations =  1.0

     total cpu time spent up to now is       90.6 secs

     total energy              =    -184.83182851 Ry
     estimated scf accuracy    <          3.3E-14 Ry

     iteration # 44     ecut=    80.00 Ry     beta= 0.20
     Davidson diagonalization with overlap

---- Real-time Memory Report at c_bands before calling an iterative solver
            80 MiB given to the printing process from OS
            61 MiB allocation reported by mallinfo(arena+hblkhd)
        244307 MiB available memory on the node where the printing process lives
------------------
     ethr =  1.00E-13,  avg # of iterations =  1.0

     total cpu time spent up to now is       91.5 secs

     total energy              =    -184.83182851 Ry
     estimated scf accuracy    <          3.3E-14 Ry

     iteration # 45     ecut=    80.00 Ry     beta= 0.20
     Davidson diagonalization with overlap

---- Real-time Memory Report at c_bands before calling an iterative solver
            80 MiB given to the printing process from OS
            61 MiB allocation reported by mallinfo(arena+hblkhd)
        244307 MiB available memory on the node where the printing process lives
------------------
     ethr =  1.00E-13,  avg # of iterations =  1.0

     total cpu time spent up to now is       92.4 secs

     total energy              =    -184.83182851 Ry
     estimated scf accuracy    <          1.3E-13 Ry

     iteration # 46     ecut=    80.00 Ry     beta= 0.20
     Davidson diagonalization with overlap

---- Real-time Memory Report at c_bands before calling an iterative solver
            80 MiB given to the printing process from OS
            61 MiB allocation reported by mallinfo(arena+hblkhd)
        244307 MiB available memory on the node where the printing process lives
------------------
     ethr =  1.00E-13,  avg # of iterations =  1.0

     total cpu time spent up to now is       93.3 secs

     total energy              =    -184.83182851 Ry
     estimated scf accuracy    <          1.6E-13 Ry

     iteration # 47     ecut=    80.00 Ry     beta= 0.20
     Davidson diagonalization with overlap

---- Real-time Memory Report at c_bands before calling an iterative solver
            80 MiB given to the printing process from OS
            61 MiB allocation reported by mallinfo(arena+hblkhd)
        244307 MiB available memory on the node where the printing process lives
------------------
     ethr =  1.00E-13,  avg # of iterations =  1.0

     total cpu time spent up to now is       94.2 secs

     total energy              =    -184.83182851 Ry
     estimated scf accuracy    <          1.2E-12 Ry

     iteration # 48     ecut=    80.00 Ry     beta= 0.20
     Davidson diagonalization with overlap

---- Real-time Memory Report at c_bands before calling an iterative solver
            80 MiB given to the printing process from OS
            61 MiB allocation reported by mallinfo(arena+hblkhd)
        244308 MiB available memory on the node where the printing process lives
------------------
     ethr =  1.00E-13,  avg # of iterations =  1.0

     total cpu time spent up to now is       95.2 secs

     total energy              =    -184.83182851 Ry
     estimated scf accuracy    <          2.0E-13 Ry

     iteration # 49     ecut=    80.00 Ry     beta= 0.20
     Davidson diagonalization with overlap

---- Real-time Memory Report at c_bands before calling an iterative solver
            80 MiB given to the printing process from OS
            61 MiB allocation reported by mallinfo(arena+hblkhd)
        244298 MiB available memory on the node where the printing process lives
------------------
     ethr =  1.00E-13,  avg # of iterations =  1.0

     total cpu time spent up to now is       96.0 secs

     total energy              =    -184.83182851 Ry
     estimated scf accuracy    <          7.3E-14 Ry

     iteration # 50     ecut=    80.00 Ry     beta= 0.20
     Davidson diagonalization with overlap

---- Real-time Memory Report at c_bands before calling an iterative solver
            80 MiB given to the printing process from OS
            61 MiB allocation reported by mallinfo(arena+hblkhd)
        244299 MiB available memory on the node where the printing process lives
------------------
     ethr =  1.00E-13,  avg # of iterations =  1.0

     total cpu time spent up to now is       96.9 secs

     total energy              =    -184.83182851 Ry
     estimated scf accuracy    <          2.0E-14 Ry

     iteration # 51     ecut=    80.00 Ry     beta= 0.20
     Davidson diagonalization with overlap

---- Real-time Memory Report at c_bands before calling an iterative solver
            80 MiB given to the printing process from OS
            61 MiB allocation reported by mallinfo(arena+hblkhd)
        244299 MiB available memory on the node where the printing process lives
------------------
     ethr =  1.00E-13,  avg # of iterations =  1.0

     total cpu time spent up to now is       97.8 secs

     total energy              =    -184.83182851 Ry
     estimated scf accuracy    <          1.3E-14 Ry

     iteration # 52     ecut=    80.00 Ry     beta= 0.20
     Davidson diagonalization with overlap

---- Real-time Memory Report at c_bands before calling an iterative solver
            80 MiB given to the printing process from OS
            61 MiB allocation reported by mallinfo(arena+hblkhd)
        244300 MiB available memory on the node where the printing process lives
------------------
     ethr =  1.00E-13,  avg # of iterations =  1.0

     total cpu time spent up to now is       98.8 secs

     End of self-consistent calculation

          k = 0.0000 0.0000 0.0000 ( 14903 PWs)   bands (ev):

   -66.6864 -40.8911 -40.6280 -40.6280 -20.1794 -18.8195 -11.7272  -8.5840
    -8.5840  -7.8033  -7.4290  -7.4290  -6.0300

     occupation numbers 
     1.0000   1.0000   1.0000   1.0000   1.0000   1.0000   1.0000   1.0000
     1.0000   1.0000   1.0000   1.0000   1.0000

          k = 0.0000 0.0550 0.0000 ( 14887 PWs)   bands (ev):

   -66.6854 -40.8892 -40.6378 -40.6302 -20.1434 -18.8048 -11.6861  -8.6658
    -8.5463  -8.0198  -7.4879  -7.2637  -6.0425

     occupation numbers 
     1.0000   1.0000   1.0000   1.0000   1.0000   1.0000   1.0000   1.0000
     1.0000   1.0000   1.0000   1.0000   1.0000

          k = 0.0000 0.1100 0.0000 ( 14865 PWs)   bands (ev):

   -66.6825 -40.8836 -40.6663 -40.6366 -20.0375 -18.7616 -11.5685  -8.8894
    -8.4356  -8.3761  -7.6493  -7.0758  -6.0910

     occupation numbers 
     1.0000   1.0000   1.0000   1.0000   1.0000   1.0000   1.0000   1.0000
     1.0000   1.0000   1.0000   1.0000   1.0000

          k = 0.0000 0.1650 0.0000 ( 14863 PWs)   bands (ev):

   -66.6780 -40.8747 -40.7106 -40.6467 -19.8667 -18.6920 -11.3937  -9.1999
    -8.7578  -8.2596  -7.8777  -7.0087  -6.2044

     occupation numbers 
     1.0000   1.0000   1.0000   1.0000   1.0000   1.0000   1.0000   1.0000
     1.0000   1.0000   1.0000   1.0000   1.0000

          k = 0.0000 0.2199 0.0000 ( 14819 PWs)   bands (ev):

   -66.6722 -40.8635 -40.7666 -40.6595 -19.6403 -18.5998 -11.2052  -9.5249
    -9.1478  -8.1358  -8.0318  -7.0800  -6.4058

     occupation numbers 
     1.0000   1.0000   1.0000   1.0000   1.0000   1.0000   1.0000   1.0000
     1.0000   1.0000   1.0000   1.0000   1.0000

          k = 0.0000 0.2749 0.0000 ( 14799 PWs)   bands (ev):

   -66.6657 -40.8508 -40.8291 -40.6739 -19.3710 -18.4909 -11.0887  -9.7752
    -9.5379  -8.3940  -7.7717  -7.2448  -6.6669

     occupation numbers 
     1.0000   1.0000   1.0000   1.0000   1.0000   1.0000   1.0000   1.0000
     1.0000   1.0000   1.0000   1.0000   1.0000

          k = 0.0000 0.3299 0.0000 ( 14811 PWs)   bands (ev):

   -66.6591 -40.8925 -40.8377 -40.6885 -19.0763 -18.3731 -11.1432  -9.9164
    -9.8807  -8.6316  -7.5047  -7.4371  -6.8955

     occupation numbers 
     1.0000   1.0000   1.0000   1.0000   1.0000   1.0000   1.0000   1.0000
     1.0000   1.0000   1.0000   1.0000   1.0000

          k = 0.0000 0.3849 0.0000 ( 14770 PWs)   bands (ev):

   -66.6529 -40.9510 -40.8255 -40.7021 -18.7789 -18.2562 -11.3433 -10.2644
    -9.9093  -8.8343  -7.6099  -7.2596  -6.9881

     occupation numbers 
     1.0000   1.0000   1.0000   1.0000   1.0000   1.0000   1.0000   1.0000
     1.0000   1.0000   1.0000   1.0000   1.0000

          k = 0.0000 0.4399 0.0000 ( 14726 PWs)   bands (ev):

   -66.6476 -40.9998 -40.8153 -40.7135 -18.5080 -18.1522 -11.5800 -10.5574
    -9.9675  -8.9931  -7.7416  -7.0619  -6.9155

     occupation numbers 
     1.0000   1.0000   1.0000   1.0000   1.0000   1.0000   1.0000   1.0000
     1.0000   1.0000   1.0000   1.0000   1.0000

          k = 0.0000 0.4949 0.0000 ( 14720 PWs)   bands (ev):

   -66.6439 -41.0347 -40.8079 -40.7217 -18.2975 -18.0735 -11.7771 -10.7703
   -10.0530  -9.1018  -7.8273  -6.9275  -6.7570

     occupation numbers 
     1.0000   1.0000   1.0000   1.0000   1.0000   1.0000   1.0000   1.0000
     1.0000   1.0000   1.0000   1.0000   1.0000

          k = 0.0000 0.5499 0.0000 ( 14732 PWs)   bands (ev):

   -66.6419 -41.0529 -40.8040 -40.7260 -18.1813 -18.0309 -11.8883 -10.8825
   -10.1131  -9.1571  -7.8690  -6.8608  -6.6357

     occupation numbers 
     1.0000   1.0000   1.0000   1.0000   1.0000   1.0000   1.0000   1.0000
     1.0000   1.0000   1.0000   1.0000   1.0000

          k = 0.0476 0.0825 0.0000 ( 14879 PWs)   bands (ev):

   -66.6834 -40.8854 -40.6568 -40.6347 -20.0725 -18.7759 -11.6067  -8.8179
    -8.4726  -8.2721  -7.6140  -7.1042  -6.0729

     occupation numbers 
     1.0000   1.0000   1.0000   1.0000   1.0000   1.0000   1.0000   1.0000
     1.0000   1.0000   1.0000   1.0000   1.0000

          k = 0.0476 0.1375 0.0000 ( 14866 PWs)   bands (ev):

   -66.6797 -40.8782 -40.6927 -40.6434 -19.9341 -18.7194 -11.4594  -9.0826
    -8.6037  -8.3317  -7.8448  -6.9730  -6.1537

     occupation numbers 
     1.0000   1.0000   1.0000   1.0000   1.0000   1.0000   1.0000   1.0000
     1.0000   1.0000   1.0000   1.0000   1.0000

          k = 0.0476 0.1925 0.0000 ( 14822 PWs)   bands (ev):

   -66.6746 -40.8681 -40.7422 -40.6555 -19.7354 -18.6384 -11.2736  -9.3972
    -8.9626  -8.1361  -8.1238  -6.9595  -6.3124

     occupation numbers 
     1.0000   1.0000   1.0000   1.0000   1.0000   1.0000   1.0000   1.0000
     1.0000   1.0000   1.0000   1.0000   1.0000

          k = 0.0476 0.2474 0.0000 ( 14793 PWs)   bands (ev):

   -66.6685 -40.8561 -40.8007 -40.6699 -19.4872 -18.5375 -11.1120  -9.6816
    -9.3389  -8.4022  -7.9068  -7.0682  -6.5465

     occupation numbers 
     1.0000   1.0000   1.0000   1.0000   1.0000   1.0000   1.0000   1.0000
     1.0000   1.0000   1.0000   1.0000   1.0000

          k = 0.0476 0.3024 0.0000 ( 14818 PWs)   bands (ev):

   -66.6619 -40.8628 -40.8433 -40.6852 -19.2046 -18.4236 -11.0782  -9.8448
    -9.7236  -8.6469  -7.6772  -7.2502  -6.7850

     occupation numbers 
     1.0000   1.0000   1.0000   1.0000   1.0000   1.0000   1.0000   1.0000
     1.0000   1.0000   1.0000   1.0000   1.0000

          k = 0.0476 0.3574 0.0000 ( 14790 PWs)   bands (ev):

   -66.6555 -40.9229 -40.8307 -40.7001 -18.9074 -18.3053 -11.2182 -10.0971
    -9.8825  -8.8440  -7.4929  -7.4485  -6.9042

     occupation numbers 
     1.0000   1.0000   1.0000   1.0000   1.0000   1.0000   1.0000   1.0000
     1.0000   1.0000   1.0000   1.0000   1.0000

          k = 0.0476 0.4124 0.0000 ( 14761 PWs)   bands (ev):

   -66.6498 -40.9758 -40.8194 -40.7134 -18.6215 -18.1937 -11.4431 -10.4309
    -9.9146  -8.9920  -7.6241  -7.3605  -6.8451

     occupation numbers 
     1.0000   1.0000   1.0000   1.0000   1.0000   1.0000   1.0000   1.0000
     1.0000   1.0000   1.0000   1.0000   1.0000

          k = 0.0476 0.4674 0.0000 ( 14735 PWs)   bands (ev):

   -66.6453 -41.0171 -40.8106 -40.7238 -18.3785 -18.1011 -11.6599 -10.6954
    -9.9933  -9.0943  -7.7567  -7.2325  -6.6973

     occupation numbers 
     1.0000   1.0000   1.0000   1.0000   1.0000   1.0000   1.0000   1.0000
     1.0000   1.0000   1.0000   1.0000   1.0000

          k = 0.0476 0.5224 0.0000 ( 14722 PWs)   bands (ev):

   -66.6424 -41.0433 -40.8050 -40.7304 -18.2130 -18.0393 -11.8132 -10.8654
   -10.0748  -9.1542  -7.8379  -7.1319  -6.5558

     occupation numbers 
     1.0000   1.0000   1.0000   1.0000   1.0000   1.0000   1.0000   1.0000
     1.0000   1.0000   1.0000   1.0000   1.0000

          k = 0.0476 0.5774 0.0000 ( 14726 PWs)   bands (ev):

   -66.6414 -41.0523 -40.8030 -40.7326 -18.1540 -18.0176 -11.8684 -10.9241
   -10.1082  -9.1740  -7.8651  -7.0956  -6.4963

     occupation numbers 
     1.0000   1.0000   1.0000   1.0000   1.0000   1.0000   1.0000   1.0000
     1.0000   1.0000   1.0000   1.0000   1.0000

          k = 0.0952 0.1650 0.0000 ( 14831 PWs)   bands (ev):

   -66.6754 -40.8697 -40.7330 -40.6549 -19.7676 -18.6514 -11.2982  -9.3478
    -8.8710  -8.1764  -8.1749  -6.8803  -6.2803

     occupation numbers 
     1.0000   1.0000   1.0000   1.0000   1.0000   1.0000   1.0000   1.0000
     1.0000   1.0000   1.0000   1.0000   1.0000

          k = 0.0952 0.2199 0.0000 ( 14819 PWs)   bands (ev):

   -66.6699 -40.8590 -40.7836 -40.6700 -19.5469 -18.5613 -11.1283  -9.6168
    -9.1683  -8.5321  -7.9953  -6.8853  -6.4763

     occupation numbers 
     1.0000   1.0000   1.0000   1.0000   1.0000   1.0000   1.0000   1.0000
     1.0000   1.0000   1.0000   1.0000   1.0000

          k = 0.0952 0.2749 0.0000 ( 14797 PWs)   bands (ev):

   -66.6637 -40.8468 -40.8399 -40.6871 -19.2846 -18.4547 -11.0349  -9.8010
    -9.5202  -8.8208  -7.8335  -7.0018  -6.6929

     occupation numbers 
     1.0000   1.0000   1.0000   1.0000   1.0000   1.0000   1.0000   1.0000
     1.0000   1.0000   1.0000   1.0000   1.0000

          k = 0.0952 0.3299 0.0000 ( 14799 PWs)   bands (ev):

   -66.6574 -40.8969 -40.8344 -40.7046 -18.9980 -18.3390 -11.1006  -9.9155
    -9.8460  -9.0072  -7.7484  -7.1919  -6.8185

     occupation numbers 
     1.0000   1.0000   1.0000   1.0000   1.0000   1.0000   1.0000   1.0000
     1.0000   1.0000   1.0000   1.0000   1.0000

          k = 0.0952 0.3849 0.0000 ( 14775 PWs)   bands (ev):

   -66.6514 -40.9496 -40.8227 -40.7209 -18.7096 -18.2239 -11.2844 -10.3004
    -9.8428  -9.1137  -7.7248  -7.4063  -6.7889

     occupation numbers 
     1.0000   1.0000   1.0000   1.0000   1.0000   1.0000   1.0000   1.0000
     1.0000   1.0000   1.0000   1.0000   1.0000

          k = 0.0952 0.4399 0.0000 ( 14747 PWs)   bands (ev):

   -66.6464 -40.9936 -40.8129 -40.7346 -18.4476 -18.1212 -11.4911 -10.6276
    -9.8970  -9.1662  -7.6722  -7.6046  -6.6627

     occupation numbers 
     1.0000   1.0000   1.0000   1.0000   1.0000   1.0000   1.0000   1.0000
     1.0000   1.0000   1.0000   1.0000   1.0000

          k = 0.0952 0.4949 0.0000 ( 14735 PWs)   bands (ev):

   -66.6428 -41.0250 -40.8058 -40.7444 -18.2450 -18.0433 -11.6599 -10.8643
    -9.9925  -9.1852  -7.7568  -7.5931  -6.5097

     occupation numbers 
     1.0000   1.0000   1.0000   1.0000   1.0000   1.0000   1.0000   1.0000
     1.0000   1.0000   1.0000   1.0000   1.0000

          k = 0.0952 0.5499 0.0000 ( 14720 PWs)   bands (ev):

   -66.6409 -41.0415 -40.8021 -40.7495 -18.1335 -18.0010 -11.7544 -10.9884
   -10.0614  -9.1886  -7.8399  -7.5412  -6.4002

     occupation numbers 
     1.0000   1.0000   1.0000   1.0000   1.0000   1.0000   1.0000   1.0000
     1.0000   1.0000   1.0000   1.0000   1.0000

          k = 0.1429 0.2474 0.0000 ( 14805 PWs)   bands (ev):

   -66.6643 -40.8480 -40.8310 -40.6888 -19.3118 -18.4652 -11.0198  -9.7813
    -9.3984  -8.9446  -7.8938  -6.8906  -6.6592

     occupation numbers 
     1.0000   1.0000   1.0000   1.0000   1.0000   1.0000   1.0000   1.0000
     1.0000   1.0000   1.0000   1.0000   1.0000

          k = 0.1429 0.3024 0.0000 ( 14800 PWs)   bands (ev):

   -66.6583 -40.8804 -40.8363 -40.7098 -19.0447 -18.3560 -11.0280  -9.8191
    -9.7523  -9.1874  -7.9033  -7.0039  -6.7748

     occupation numbers 
     1.0000   1.0000   1.0000   1.0000   1.0000   1.0000   1.0000   1.0000
     1.0000   1.0000   1.0000   1.0000   1.0000

          k = 0.1429 0.3574 0.0000 ( 14795 PWs)   bands (ev):

   -66.6525 -40.9279 -40.8248 -40.7308 -18.7651 -18.2422 -11.1532 -10.1768
    -9.7724  -9.2712  -8.0134  -7.1977  -6.7683

     occupation numbers 
     1.0000   1.0000   1.0000   1.0000   1.0000   1.0000   1.0000   1.0000
     1.0000   1.0000   1.0000   1.0000   1.0000

          k = 0.1429 0.4124 0.0000 ( 14779 PWs)   bands (ev):

   -66.6473 -40.9695 -40.8146 -40.7497 -18.4978 -18.1341 -11.3188 -10.5646
    -9.7730  -9.2782  -8.0988  -7.4249  -6.6710

     occupation numbers 
     1.0000   1.0000   1.0000   1.0000   1.0000   1.0000   1.0000   1.0000
     1.0000   1.0000   1.0000   1.0000   1.0000

          k = 0.1429 0.4674 0.0000 ( 14755 PWs)   bands (ev):

   -66.6432 -41.0018 -40.8065 -40.7646 -18.2725 -18.0440 -11.4671 -10.8683
    -9.8645  -9.2444  -8.1012  -7.6396  -6.5216

     occupation numbers 
     1.0000   1.0000   1.0000   1.0000   1.0000   1.0000   1.0000   1.0000
     1.0000   1.0000   1.0000   1.0000   1.0000

          k = 0.1429 0.5224 0.0000 ( 14748 PWs)   bands (ev):

   -66.6406 -41.0224 -40.8014 -40.7741 -18.1202 -17.9837 -11.5671 -11.0612
    -9.9727  -9.2004  -8.0713  -7.7974  -6.3728

     occupation numbers 
     1.0000   1.0000   1.0000   1.0000   1.0000   1.0000   1.0000   1.0000
     1.0000   1.0000   1.0000   1.0000   1.0000

          k = 0.1429 0.5774 0.0000 ( 14726 PWs)   bands (ev):

   -66.6397 -41.0294 -40.7996 -40.7774 -18.0661 -17.9624 -11.6024 -11.1274
   -10.0181  -9.1800  -8.0571  -7.8566  -6.3076

     occupation numbers 
     1.0000   1.0000   1.0000   1.0000   1.0000   1.0000   1.0000   1.0000
     1.0000   1.0000   1.0000   1.0000   1.0000

          k = 0.1905 0.3299 0.0000 ( 14785 PWs)   bands (ev):

   -66.6529 -40.9191 -40.8255 -40.7356 -18.7841 -18.2483 -11.1014 -10.1178
    -9.7405  -9.3477  -8.1266  -7.1118  -6.7642

     occupation numbers 
     1.0000   1.0000   1.0000   1.0000   1.0000   1.0000   1.0000   1.0000
     1.0000   1.0000   1.0000   1.0000   1.0000

          k = 0.1905 0.3849 0.0000 ( 14761 PWs)   bands (ev):

   -66.6477 -40.9531 -40.8154 -40.7614 -18.5242 -18.1404 -11.2070 -10.5221
    -9.6629  -9.3602  -8.3887  -7.3038  -6.6863

     occupation numbers 
     1.0000   1.0000   1.0000   1.0000   1.0000   1.0000   1.0000   1.0000
     1.0000   1.0000   1.0000   1.0000   1.0000

          k = 0.1905 0.4399 0.0000 ( 14749 PWs)   bands (ev):

   -66.6434 -40.9805 -40.8070 -40.7842 -18.2910 -18.0433 -11.2990 -10.8714
    -9.6974  -9.3008  -8.5563  -7.5335  -6.5500

     occupation numbers 
     1.0000   1.0000   1.0000   1.0000   1.0000   1.0000   1.0000   1.0000
     1.0000   1.0000   1.0000   1.0000   1.0000

          k = 0.1905 0.4949 0.0000 ( 14738 PWs)   bands (ev):

   -66.6403 -40.9995 -40.8012 -40.8008 -18.1129 -17.9692 -11.3568 -11.1237
    -9.8344  -9.2118  -8.6046  -7.7473  -6.3781

     occupation numbers 
     1.0000   1.0000   1.0000   1.0000   1.0000   1.0000   1.0000   1.0000
     1.0000   1.0000   1.0000   1.0000   1.0000

          k = 0.1905 0.5499 0.0000 ( 14758 PWs)   bands (ev):

   -66.6386 -41.0092 -40.8102 -40.7976 -18.0158 -17.9289 -11.3809 -11.2556
    -9.9477  -9.1421  -8.6068  -7.8830  -6.2473

     occupation numbers 
     1.0000   1.0000   1.0000   1.0000   1.0000   1.0000   1.0000   1.0000
     1.0000   1.0000   1.0000   1.0000   1.0000

          k = 0.2381 0.4124 0.0000 ( 14762 PWs)   bands (ev):

   -66.6435 -40.9712 -40.8071 -40.7928 -18.2975 -18.0429 -11.2310 -10.8723
    -9.5876  -9.3236  -8.7749  -7.4906  -6.5634

     occupation numbers 
     1.0000   1.0000   1.0000   1.0000   1.0000   1.0000   1.0000   1.0000
     1.0000   1.0000   1.0000   1.0000   1.0000

          k = 0.2381 0.4674 0.0000 ( 14743 PWs)   bands (ev):

   -66.6401 -40.9820 -40.8210 -40.8006 -18.1098 -17.9610 -11.2094 -11.1594
    -9.6500  -9.2199  -9.0321  -7.7120  -6.3883

     occupation numbers 
     1.0000   1.0000   1.0000   1.0000   1.0000   1.0000   1.0000   1.0000
     1.0000   1.0000   1.0000   1.0000   1.0000

          k = 0.2381 0.5224 0.0000 ( 14764 PWs)   bands (ev):

   -66.6380 -40.9867 -40.8410 -40.7964 -17.9851 -17.9059 -11.3452 -11.1555
    -9.8396  -9.1046  -9.1033  -7.9056  -6.2078

     occupation numbers 
     1.0000   1.0000   1.0000   1.0000   1.0000   1.0000   1.0000   1.0000
     1.0000   1.0000   1.0000   1.0000   1.0000

          k = 0.2381 0.5774 0.0000 ( 14780 PWs)   bands (ev):

   -66.6373 -40.9879 -40.8483 -40.7950 -17.9413 -17.8864 -11.4094 -11.1231
    -9.9385  -9.1131  -9.0479  -7.9878  -6.1258

     occupation numbers 
     1.0000   1.0000   1.0000   1.0000   1.0000   1.0000   1.0000   1.0000
     1.0000   1.0000   1.0000   1.0000   1.0000

          k = 0.2857 0.4949 0.0000 ( 14734 PWs)   bands (ev):

   -66.6378 -40.9752 -40.8553 -40.7960 -17.9748 -17.8977 -11.3773 -11.0514
    -9.7287  -9.3756  -9.0874  -7.9142  -6.1932

     occupation numbers 
     1.0000   1.0000   1.0000   1.0000   1.0000   1.0000   1.0000   1.0000
     1.0000   1.0000   1.0000   1.0000   1.0000

          k = 0.2857 0.5499 0.0000 ( 14738 PWs)   bands (ev):

   -66.6366 -40.9659 -40.8791 -40.7936 -17.9026 -17.8631 -11.4937 -10.8812
    -9.9720  -9.4475  -8.9733  -8.0655  -6.0416

     occupation numbers 
     1.0000   1.0000   1.0000   1.0000   1.0000   1.0000   1.0000   1.0000
     1.0000   1.0000   1.0000   1.0000   1.0000

          k = 0.3333 0.5774 0.0000 ( 14760 PWs)   bands (ev):

   -66.6361 -40.9502 -40.9007 -40.7926 -17.8742 -17.8479 -11.5458 -10.6820
   -10.1575  -9.5313  -8.9078  -8.1410  -5.9662

     occupation numbers 
     1.0000   1.0000   1.0000   1.0000   1.0000   1.0000   1.0000   1.0000
     1.0000   1.0000   1.0000   1.0000   1.0000

     highest occupied level (ev):    -5.9662

!    total energy              =    -184.83182851 Ry
     estimated scf accuracy    <          1.8E-16 Ry

     convergence has been achieved in  52 iterations

     Forces acting on atoms (cartesian axes, Ry/au):

     atom    1 type  1   force =     0.00000000    0.00000000    0.00000000
     atom    2 type  2   force =     0.00000000   -0.00000000   -0.00082909
     atom    3 type  2   force =     0.00000000   -0.00000000    0.00082909
     The non-local contrib.  to forces
     atom    1 type  1   force =     0.00000000    0.00000000    0.00000000
     atom    2 type  2   force =    -0.00000000   -0.00000000   -0.25643392
     atom    3 type  2   force =     0.00000000    0.00000000    0.25643392
     The ionic contribution  to forces
     atom    1 type  1   force =     0.00000001    0.00000097    0.00000000
     atom    2 type  2   force =    -0.00000000   -0.00000048   46.86742221
     atom    3 type  2   force =    -0.00000000   -0.00000048  -46.86742221
     The local contribution  to forces
     atom    1 type  1   force =     0.00000000    0.00002380    0.00000000
     atom    2 type  2   force =    -0.00000001    0.00000001  -46.61604038
     atom    3 type  2   force =    -0.00000001    0.00000001   46.61604038
     The core correction contribution to forces
     atom    1 type  1   force =    -0.00000000   -0.00000040   -0.00000000
     atom    2 type  2   force =     0.00000000   -0.00000000    0.00422300
     atom    3 type  2   force =     0.00000000   -0.00000000   -0.00422300
     The Hubbard contrib.    to forces
     atom    1 type  1   force =     0.00000000    0.00000000    0.00000000
     atom    2 type  2   force =     0.00000000    0.00000000    0.00000000
     atom    3 type  2   force =     0.00000000    0.00000000    0.00000000
     The SCF correction term to forces
     atom    1 type  1   force =    -0.00000000   -0.00000000   -0.00000000
     atom    2 type  2   force =     0.00000000    0.00000000   -0.00000000
     atom    3 type  2   force =    -0.00000000    0.00000000    0.00000000

     Total force =     0.001173     Total SCF correction =     0.000000

     Damped Dynamics Calculation

     Entering Dynamics:    iteration =     1

ATOMIC_POSITIONS (crystal)
Mo               0.3333333000        0.6666666000        0.5000000000    0   0   0
S                0.6666666670        0.3333333330        0.5736239236    0   0   1
S                0.6666666670        0.3333333330        0.4263760764    0   0   1



     Writing config-only to output data dir ./tmp/MoS2.save/ :
     XML data file
     NEW-OLD atomic charge density approx. for the potential

     negative rho (up, down):  1.798E-08 0.000E+00

     total cpu time spent up to now is       99.4 secs

     per-process dynamical memory:    62.6 Mb

     Self-consistent Calculation

     iteration #  1     ecut=    80.00 Ry     beta= 0.20
     Davidson diagonalization with overlap

---- Real-time Memory Report at c_bands before calling an iterative solver
            83 MiB given to the printing process from OS
            61 MiB allocation reported by mallinfo(arena+hblkhd)
        244294 MiB available memory on the node where the printing process lives
------------------
     ethr =  1.00E-06,  avg # of iterations =  1.0

     Threshold (ethr) on eigenvalues was too large:
     Diagonalizing with lowered threshold

     Davidson diagonalization with overlap

---- Real-time Memory Report at c_bands before calling an iterative solver
            83 MiB given to the printing process from OS
            61 MiB allocation reported by mallinfo(arena+hblkhd)
        244294 MiB available memory on the node where the printing process lives
------------------
     ethr =  6.98E-10,  avg # of iterations =  4.9

     negative rho (up, down):  1.354E-08 0.000E+00

     total cpu time spent up to now is      101.8 secs

     total energy              =    -184.83182905 Ry
     estimated scf accuracy    <          5.2E-09 Ry

     iteration #  2     ecut=    80.00 Ry     beta= 0.20
     Davidson diagonalization with overlap

---- Real-time Memory Report at c_bands before calling an iterative solver
            83 MiB given to the printing process from OS
            61 MiB allocation reported by mallinfo(arena+hblkhd)
        244294 MiB available memory on the node where the printing process lives
------------------
     ethr =  2.00E-11,  avg # of iterations =  6.4

     negative rho (up, down):  1.305E-08 0.000E+00

     total cpu time spent up to now is      103.4 secs

     total energy              =    -184.83182906 Ry
     estimated scf accuracy    <          8.9E-09 Ry

     iteration #  3     ecut=    80.00 Ry     beta= 0.20
     Davidson diagonalization with overlap

---- Real-time Memory Report at c_bands before calling an iterative solver
            83 MiB given to the printing process from OS
            61 MiB allocation reported by mallinfo(arena+hblkhd)
        244295 MiB available memory on the node where the printing process lives
------------------
     ethr =  2.00E-11,  avg # of iterations =  1.0

     total cpu time spent up to now is      104.3 secs

     total energy              =    -184.83182905 Ry
     estimated scf accuracy    <          8.1E-09 Ry

     iteration #  4     ecut=    80.00 Ry     beta= 0.20
     Davidson diagonalization with overlap

---- Real-time Memory Report at c_bands before calling an iterative solver
            83 MiB given to the printing process from OS
            61 MiB allocation reported by mallinfo(arena+hblkhd)
        244295 MiB available memory on the node where the printing process lives
------------------
     ethr =  2.00E-11,  avg # of iterations =  6.5

     total cpu time spent up to now is      106.2 secs

     total energy              =    -184.83182906 Ry
     estimated scf accuracy    <       0.00000004 Ry

     iteration #  5     ecut=    80.00 Ry     beta= 0.20
     Davidson diagonalization with overlap

---- Real-time Memory Report at c_bands before calling an iterative solver
            83 MiB given to the printing process from OS
            61 MiB allocation reported by mallinfo(arena+hblkhd)
        244295 MiB available memory on the node where the printing process lives
------------------
     ethr =  2.00E-11,  avg # of iterations =  1.8

     total cpu time spent up to now is      107.2 secs

     total energy              =    -184.83182905 Ry
     estimated scf accuracy    <       0.00000003 Ry

     iteration #  6     ecut=    80.00 Ry     beta= 0.20
     Davidson diagonalization with overlap

---- Real-time Memory Report at c_bands before calling an iterative solver
            83 MiB given to the printing process from OS
            61 MiB allocation reported by mallinfo(arena+hblkhd)
        244295 MiB available memory on the node where the printing process lives
------------------
     ethr =  2.00E-11,  avg # of iterations =  6.1

     total cpu time spent up to now is      108.8 secs

     total energy              =    -184.83182906 Ry
     estimated scf accuracy    <          1.9E-09 Ry

     iteration #  7     ecut=    80.00 Ry     beta= 0.20
     Davidson diagonalization with overlap

---- Real-time Memory Report at c_bands before calling an iterative solver
            83 MiB given to the printing process from OS
            61 MiB allocation reported by mallinfo(arena+hblkhd)
        244295 MiB available memory on the node where the printing process lives
------------------
     ethr =  7.44E-12,  avg # of iterations =  1.6

     total cpu time spent up to now is      109.8 secs

     total energy              =    -184.83182906 Ry
     estimated scf accuracy    <          9.3E-10 Ry

     iteration #  8     ecut=    80.00 Ry     beta= 0.20
     Davidson diagonalization with overlap

---- Real-time Memory Report at c_bands before calling an iterative solver
            83 MiB given to the printing process from OS
            61 MiB allocation reported by mallinfo(arena+hblkhd)
        244295 MiB available memory on the node where the printing process lives
------------------
     ethr =  3.58E-12,  avg # of iterations =  5.1

     total cpu time spent up to now is      111.3 secs

     total energy              =    -184.83182906 Ry
     estimated scf accuracy    <          6.8E-10 Ry

     iteration #  9     ecut=    80.00 Ry     beta= 0.20
     Davidson diagonalization with overlap

---- Real-time Memory Report at c_bands before calling an iterative solver
            83 MiB given to the printing process from OS
            61 MiB allocation reported by mallinfo(arena+hblkhd)
        244295 MiB available memory on the node where the printing process lives
------------------
     ethr =  2.61E-12,  avg # of iterations =  1.0

     total cpu time spent up to now is      112.2 secs

     total energy              =    -184.83182906 Ry
     estimated scf accuracy    <          7.4E-10 Ry

     iteration # 10     ecut=    80.00 Ry     beta= 0.20
     Davidson diagonalization with overlap

---- Real-time Memory Report at c_bands before calling an iterative solver
            83 MiB given to the printing process from OS
            61 MiB allocation reported by mallinfo(arena+hblkhd)
        244295 MiB available memory on the node where the printing process lives
------------------
     ethr =  2.61E-12,  avg # of iterations =  1.2

     total cpu time spent up to now is      113.1 secs

     total energy              =    -184.83182906 Ry
     estimated scf accuracy    <          3.7E-10 Ry

     iteration # 11     ecut=    80.00 Ry     beta= 0.20
     Davidson diagonalization with overlap

---- Real-time Memory Report at c_bands before calling an iterative solver
            83 MiB given to the printing process from OS
            61 MiB allocation reported by mallinfo(arena+hblkhd)
        244294 MiB available memory on the node where the printing process lives
------------------
     ethr =  1.44E-12,  avg # of iterations =  4.5

     total cpu time spent up to now is      114.5 secs

     total energy              =    -184.83182906 Ry
     estimated scf accuracy    <          8.7E-11 Ry

     iteration # 12     ecut=    80.00 Ry     beta= 0.20
     Davidson diagonalization with overlap

---- Real-time Memory Report at c_bands before calling an iterative solver
            83 MiB given to the printing process from OS
            61 MiB allocation reported by mallinfo(arena+hblkhd)
        244294 MiB available memory on the node where the printing process lives
------------------
     ethr =  3.36E-13,  avg # of iterations =  6.8

     total cpu time spent up to now is      116.4 secs

     total energy              =    -184.83182906 Ry
     estimated scf accuracy    <          2.1E-09 Ry

     iteration # 13     ecut=    80.00 Ry     beta= 0.20
     Davidson diagonalization with overlap

---- Real-time Memory Report at c_bands before calling an iterative solver
            83 MiB given to the printing process from OS
            61 MiB allocation reported by mallinfo(arena+hblkhd)
        244300 MiB available memory on the node where the printing process lives
------------------
     ethr =  3.36E-13,  avg # of iterations =  4.7

     total cpu time spent up to now is      117.8 secs

     total energy              =    -184.83182906 Ry
     estimated scf accuracy    <          3.8E-09 Ry

     iteration # 14     ecut=    80.00 Ry     beta= 0.20
     Davidson diagonalization with overlap

---- Real-time Memory Report at c_bands before calling an iterative solver
            83 MiB given to the printing process from OS
            61 MiB allocation reported by mallinfo(arena+hblkhd)
        244300 MiB available memory on the node where the printing process lives
------------------
     ethr =  3.36E-13,  avg # of iterations =  5.7

     total cpu time spent up to now is      119.4 secs

     total energy              =    -184.83182906 Ry
     estimated scf accuracy    <          1.3E-09 Ry

     iteration # 15     ecut=    80.00 Ry     beta= 0.20
     Davidson diagonalization with overlap

---- Real-time Memory Report at c_bands before calling an iterative solver
            83 MiB given to the printing process from OS
            61 MiB allocation reported by mallinfo(arena+hblkhd)
        244300 MiB available memory on the node where the printing process lives
------------------
     ethr =  3.36E-13,  avg # of iterations =  6.5

     total cpu time spent up to now is      121.3 secs

     total energy              =    -184.83182906 Ry
     estimated scf accuracy    <          3.6E-13 Ry

     iteration # 16     ecut=    80.00 Ry     beta= 0.20
     Davidson diagonalization with overlap

---- Real-time Memory Report at c_bands before calling an iterative solver
            83 MiB given to the printing process from OS
            61 MiB allocation reported by mallinfo(arena+hblkhd)
        244300 MiB available memory on the node where the printing process lives
------------------
     ethr =  1.00E-13,  avg # of iterations =  2.1

     total cpu time spent up to now is      122.3 secs

     total energy              =    -184.83182906 Ry
     estimated scf accuracy    <          3.7E-12 Ry

     iteration # 17     ecut=    80.00 Ry     beta= 0.20
     Davidson diagonalization with overlap

---- Real-time Memory Report at c_bands before calling an iterative solver
            83 MiB given to the printing process from OS
            61 MiB allocation reported by mallinfo(arena+hblkhd)
        244300 MiB available memory on the node where the printing process lives
------------------
     ethr =  1.00E-13,  avg # of iterations =  2.4

     total cpu time spent up to now is      123.4 secs

     total energy              =    -184.83182906 Ry
     estimated scf accuracy    <          1.6E-11 Ry

     iteration # 18     ecut=    80.00 Ry     beta= 0.20
     Davidson diagonalization with overlap

---- Real-time Memory Report at c_bands before calling an iterative solver
            83 MiB given to the printing process from OS
            61 MiB allocation reported by mallinfo(arena+hblkhd)
        244300 MiB available memory on the node where the printing process lives
------------------
     ethr =  1.00E-13,  avg # of iterations =  6.2

     total cpu time spent up to now is      125.2 secs

     total energy              =    -184.83182906 Ry
     estimated scf accuracy    <          1.6E-10 Ry

     iteration # 19     ecut=    80.00 Ry     beta= 0.20
     Davidson diagonalization with overlap

---- Real-time Memory Report at c_bands before calling an iterative solver
            83 MiB given to the printing process from OS
            61 MiB allocation reported by mallinfo(arena+hblkhd)
        244300 MiB available memory on the node where the printing process lives
------------------
     ethr =  1.00E-13,  avg # of iterations =  1.0

     total cpu time spent up to now is      126.1 secs

     total energy              =    -184.83182906 Ry
     estimated scf accuracy    <          1.4E-10 Ry

     iteration # 20     ecut=    80.00 Ry     beta= 0.20
     Davidson diagonalization with overlap

---- Real-time Memory Report at c_bands before calling an iterative solver
            83 MiB given to the printing process from OS
            61 MiB allocation reported by mallinfo(arena+hblkhd)
        244298 MiB available memory on the node where the printing process lives
------------------
     ethr =  1.00E-13,  avg # of iterations =  2.3

     total cpu time spent up to now is      127.2 secs

     total energy              =    -184.83182906 Ry
     estimated scf accuracy    <          8.0E-11 Ry

     iteration # 21     ecut=    80.00 Ry     beta= 0.20
     Davidson diagonalization with overlap

---- Real-time Memory Report at c_bands before calling an iterative solver
            83 MiB given to the printing process from OS
            61 MiB allocation reported by mallinfo(arena+hblkhd)
        244298 MiB available memory on the node where the printing process lives
------------------
     ethr =  1.00E-13,  avg # of iterations =  1.1

     total cpu time spent up to now is      128.1 secs

     total energy              =    -184.83182906 Ry
     estimated scf accuracy    <          6.8E-11 Ry

     iteration # 22     ecut=    80.00 Ry     beta= 0.20
     Davidson diagonalization with overlap

---- Real-time Memory Report at c_bands before calling an iterative solver
            83 MiB given to the printing process from OS
            61 MiB allocation reported by mallinfo(arena+hblkhd)
        244298 MiB available memory on the node where the printing process lives
------------------
     ethr =  1.00E-13,  avg # of iterations =  1.0

     total cpu time spent up to now is      129.0 secs

     total energy              =    -184.83182906 Ry
     estimated scf accuracy    <          5.8E-11 Ry

     iteration # 23     ecut=    80.00 Ry     beta= 0.20
     Davidson diagonalization with overlap

---- Real-time Memory Report at c_bands before calling an iterative solver
            83 MiB given to the printing process from OS
            61 MiB allocation reported by mallinfo(arena+hblkhd)
        244298 MiB available memory on the node where the printing process lives
------------------
     ethr =  1.00E-13,  avg # of iterations =  1.0

     total cpu time spent up to now is      129.9 secs

     total energy              =    -184.83182906 Ry
     estimated scf accuracy    <          5.9E-11 Ry

     iteration # 24     ecut=    80.00 Ry     beta= 0.20
     Davidson diagonalization with overlap

---- Real-time Memory Report at c_bands before calling an iterative solver
            83 MiB given to the printing process from OS
            61 MiB allocation reported by mallinfo(arena+hblkhd)
        244299 MiB available memory on the node where the printing process lives
------------------
     ethr =  1.00E-13,  avg # of iterations =  1.0

     total cpu time spent up to now is      130.8 secs

     total energy              =    -184.83182906 Ry
     estimated scf accuracy    <          6.3E-11 Ry

     iteration # 25     ecut=    80.00 Ry     beta= 0.20
     Davidson diagonalization with overlap

---- Real-time Memory Report at c_bands before calling an iterative solver
            83 MiB given to the printing process from OS
            61 MiB allocation reported by mallinfo(arena+hblkhd)
        244300 MiB available memory on the node where the printing process lives
------------------
     ethr =  1.00E-13,  avg # of iterations =  4.1

     total cpu time spent up to now is      132.2 secs

     total energy              =    -184.83182906 Ry
     estimated scf accuracy    <          2.0E-12 Ry

     iteration # 26     ecut=    80.00 Ry     beta= 0.20
     Davidson diagonalization with overlap

---- Real-time Memory Report at c_bands before calling an iterative solver
            83 MiB given to the printing process from OS
            61 MiB allocation reported by mallinfo(arena+hblkhd)
        244300 MiB available memory on the node where the printing process lives
------------------
     ethr =  1.00E-13,  avg # of iterations =  1.0

     total cpu time spent up to now is      133.1 secs

     total energy              =    -184.83182906 Ry
     estimated scf accuracy    <          3.2E-12 Ry

     iteration # 27     ecut=    80.00 Ry     beta= 0.20
     Davidson diagonalization with overlap

---- Real-time Memory Report at c_bands before calling an iterative solver
            83 MiB given to the printing process from OS
            61 MiB allocation reported by mallinfo(arena+hblkhd)
        244300 MiB available memory on the node where the printing process lives
------------------
     ethr =  1.00E-13,  avg # of iterations =  1.0

     total cpu time spent up to now is      134.0 secs

     total energy              =    -184.83182906 Ry
     estimated scf accuracy    <          3.2E-13 Ry

     iteration # 28     ecut=    80.00 Ry     beta= 0.20
     Davidson diagonalization with overlap

---- Real-time Memory Report at c_bands before calling an iterative solver
            83 MiB given to the printing process from OS
            61 MiB allocation reported by mallinfo(arena+hblkhd)
        244300 MiB available memory on the node where the printing process lives
------------------
     ethr =  1.00E-13,  avg # of iterations =  1.0

     total cpu time spent up to now is      134.9 secs

     total energy              =    -184.83182906 Ry
     estimated scf accuracy    <          1.1E-13 Ry

     iteration # 29     ecut=    80.00 Ry     beta= 0.20
     Davidson diagonalization with overlap

---- Real-time Memory Report at c_bands before calling an iterative solver
            83 MiB given to the printing process from OS
            61 MiB allocation reported by mallinfo(arena+hblkhd)
        244300 MiB available memory on the node where the printing process lives
------------------
     ethr =  1.00E-13,  avg # of iterations =  1.0

     total cpu time spent up to now is      135.9 secs

     total energy              =    -184.83182906 Ry
     estimated scf accuracy    <          5.8E-14 Ry

     iteration # 30     ecut=    80.00 Ry     beta= 0.20
     Davidson diagonalization with overlap

---- Real-time Memory Report at c_bands before calling an iterative solver
            83 MiB given to the printing process from OS
            61 MiB allocation reported by mallinfo(arena+hblkhd)
        244300 MiB available memory on the node where the printing process lives
------------------
     ethr =  1.00E-13,  avg # of iterations =  1.0

     total cpu time spent up to now is      136.8 secs

     total energy              =    -184.83182906 Ry
     estimated scf accuracy    <          1.6E-14 Ry

     iteration # 31     ecut=    80.00 Ry     beta= 0.20
     Davidson diagonalization with overlap

---- Real-time Memory Report at c_bands before calling an iterative solver
            83 MiB given to the printing process from OS
            61 MiB allocation reported by mallinfo(arena+hblkhd)
        244302 MiB available memory on the node where the printing process lives
------------------
     ethr =  1.00E-13,  avg # of iterations =  1.0

     total cpu time spent up to now is      137.7 secs

     total energy              =    -184.83182906 Ry
     estimated scf accuracy    <          9.4E-15 Ry

     iteration # 32     ecut=    80.00 Ry     beta= 0.20
     Davidson diagonalization with overlap

---- Real-time Memory Report at c_bands before calling an iterative solver
            83 MiB given to the printing process from OS
            61 MiB allocation reported by mallinfo(arena+hblkhd)
        244302 MiB available memory on the node where the printing process lives
------------------
     ethr =  1.00E-13,  avg # of iterations =  1.0

     total cpu time spent up to now is      138.6 secs

     total energy              =    -184.83182906 Ry
     estimated scf accuracy    <          3.4E-14 Ry

     iteration # 33     ecut=    80.00 Ry     beta= 0.20
     Davidson diagonalization with overlap

---- Real-time Memory Report at c_bands before calling an iterative solver
            83 MiB given to the printing process from OS
            61 MiB allocation reported by mallinfo(arena+hblkhd)
        244302 MiB available memory on the node where the printing process lives
------------------
     ethr =  1.00E-13,  avg # of iterations =  1.0

     total cpu time spent up to now is      139.6 secs

     total energy              =    -184.83182906 Ry
     estimated scf accuracy    <          2.6E-14 Ry

     iteration # 34     ecut=    80.00 Ry     beta= 0.20
     Davidson diagonalization with overlap

---- Real-time Memory Report at c_bands before calling an iterative solver
            83 MiB given to the printing process from OS
            61 MiB allocation reported by mallinfo(arena+hblkhd)
        244302 MiB available memory on the node where the printing process lives
------------------
     ethr =  1.00E-13,  avg # of iterations =  1.0

     total cpu time spent up to now is      140.5 secs

     total energy              =    -184.83182906 Ry
     estimated scf accuracy    <          9.4E-15 Ry

     iteration # 35     ecut=    80.00 Ry     beta= 0.20
     Davidson diagonalization with overlap

---- Real-time Memory Report at c_bands before calling an iterative solver
            83 MiB given to the printing process from OS
            61 MiB allocation reported by mallinfo(arena+hblkhd)
        244302 MiB available memory on the node where the printing process lives
------------------
     ethr =  1.00E-13,  avg # of iterations =  1.0

     total cpu time spent up to now is      141.4 secs

     total energy              =    -184.83182906 Ry
     estimated scf accuracy    <          1.7E-15 Ry

     iteration # 36     ecut=    80.00 Ry     beta= 0.20
     Davidson diagonalization with overlap

---- Real-time Memory Report at c_bands before calling an iterative solver
            83 MiB given to the printing process from OS
            61 MiB allocation reported by mallinfo(arena+hblkhd)
        244302 MiB available memory on the node where the printing process lives
------------------
     ethr =  1.00E-13,  avg # of iterations =  1.0

     total cpu time spent up to now is      142.3 secs

     total energy              =    -184.83182906 Ry
     estimated scf accuracy    <          2.7E-14 Ry

     iteration # 37     ecut=    80.00 Ry     beta= 0.20
     Davidson diagonalization with overlap

---- Real-time Memory Report at c_bands before calling an iterative solver
            83 MiB given to the printing process from OS
            61 MiB allocation reported by mallinfo(arena+hblkhd)
        244302 MiB available memory on the node where the printing process lives
------------------
     ethr =  1.00E-13,  avg # of iterations =  1.0

     total cpu time spent up to now is      143.2 secs

     total energy              =    -184.83182906 Ry
     estimated scf accuracy    <          1.0E-13 Ry

     iteration # 38     ecut=    80.00 Ry     beta= 0.20
     Davidson diagonalization with overlap

---- Real-time Memory Report at c_bands before calling an iterative solver
            83 MiB given to the printing process from OS
            61 MiB allocation reported by mallinfo(arena+hblkhd)
        244302 MiB available memory on the node where the printing process lives
------------------
     ethr =  1.00E-13,  avg # of iterations =  1.0

     total cpu time spent up to now is      144.1 secs

     total energy              =    -184.83182906 Ry
     estimated scf accuracy    <          1.1E-13 Ry

     iteration # 39     ecut=    80.00 Ry     beta= 0.20
     Davidson diagonalization with overlap

---- Real-time Memory Report at c_bands before calling an iterative solver
            83 MiB given to the printing process from OS
            61 MiB allocation reported by mallinfo(arena+hblkhd)
        244302 MiB available memory on the node where the printing process lives
------------------
     ethr =  1.00E-13,  avg # of iterations =  1.0

     total cpu time spent up to now is      145.1 secs

     total energy              =    -184.83182906 Ry
     estimated scf accuracy    <          1.2E-13 Ry

     iteration # 40     ecut=    80.00 Ry     beta= 0.20
     Davidson diagonalization with overlap

---- Real-time Memory Report at c_bands before calling an iterative solver
            83 MiB given to the printing process from OS
            61 MiB allocation reported by mallinfo(arena+hblkhd)
        244302 MiB available memory on the node where the printing process lives
------------------
     ethr =  1.00E-13,  avg # of iterations =  1.0

     total cpu time spent up to now is      146.0 secs

     total energy              =    -184.83182906 Ry
     estimated scf accuracy    <          1.6E-13 Ry

     iteration # 41     ecut=    80.00 Ry     beta= 0.20
     Davidson diagonalization with overlap

---- Real-time Memory Report at c_bands before calling an iterative solver
            83 MiB given to the printing process from OS
            61 MiB allocation reported by mallinfo(arena+hblkhd)
        244302 MiB available memory on the node where the printing process lives
------------------
     ethr =  1.00E-13,  avg # of iterations =  1.0

     total cpu time spent up to now is      146.9 secs

     total energy              =    -184.83182906 Ry
     estimated scf accuracy    <          1.6E-13 Ry

     iteration # 42     ecut=    80.00 Ry     beta= 0.20
     Davidson diagonalization with overlap

---- Real-time Memory Report at c_bands before calling an iterative solver
            83 MiB given to the printing process from OS
            61 MiB allocation reported by mallinfo(arena+hblkhd)
        244271 MiB available memory on the node where the printing process lives
------------------
     ethr =  1.00E-13,  avg # of iterations =  1.0

     total cpu time spent up to now is      147.8 secs

     total energy              =    -184.83182906 Ry
     estimated scf accuracy    <          1.4E-13 Ry

     iteration # 43     ecut=    80.00 Ry     beta= 0.20
     Davidson diagonalization with overlap

---- Real-time Memory Report at c_bands before calling an iterative solver
            83 MiB given to the printing process from OS
            61 MiB allocation reported by mallinfo(arena+hblkhd)
        244298 MiB available memory on the node where the printing process lives
------------------
     ethr =  1.00E-13,  avg # of iterations =  1.0

     total cpu time spent up to now is      148.7 secs

     total energy              =    -184.83182906 Ry
     estimated scf accuracy    <          1.4E-13 Ry

     iteration # 44     ecut=    80.00 Ry     beta= 0.20
     Davidson diagonalization with overlap

---- Real-time Memory Report at c_bands before calling an iterative solver
            83 MiB given to the printing process from OS
            61 MiB allocation reported by mallinfo(arena+hblkhd)
        244300 MiB available memory on the node where the printing process lives
------------------
     ethr =  1.00E-13,  avg # of iterations =  1.0

     total cpu time spent up to now is      149.7 secs

     total energy              =    -184.83182906 Ry
     estimated scf accuracy    <          8.9E-14 Ry

     iteration # 45     ecut=    80.00 Ry     beta= 0.20
     Davidson diagonalization with overlap

---- Real-time Memory Report at c_bands before calling an iterative solver
            83 MiB given to the printing process from OS
            61 MiB allocation reported by mallinfo(arena+hblkhd)
        244300 MiB available memory on the node where the printing process lives
------------------
     ethr =  1.00E-13,  avg # of iterations =  1.0

     total cpu time spent up to now is      150.6 secs

     total energy              =    -184.83182906 Ry
     estimated scf accuracy    <          5.0E-14 Ry

     iteration # 46     ecut=    80.00 Ry     beta= 0.20
     Davidson diagonalization with overlap

---- Real-time Memory Report at c_bands before calling an iterative solver
            83 MiB given to the printing process from OS
            61 MiB allocation reported by mallinfo(arena+hblkhd)
        244300 MiB available memory on the node where the printing process lives
------------------
     ethr =  1.00E-13,  avg # of iterations =  1.0

     total cpu time spent up to now is      151.5 secs

     total energy              =    -184.83182906 Ry
     estimated scf accuracy    <          3.7E-15 Ry

     iteration # 47     ecut=    80.00 Ry     beta= 0.20
     Davidson diagonalization with overlap

---- Real-time Memory Report at c_bands before calling an iterative solver
            83 MiB given to the printing process from OS
            61 MiB allocation reported by mallinfo(arena+hblkhd)
        244300 MiB available memory on the node where the printing process lives
------------------
     ethr =  1.00E-13,  avg # of iterations =  1.0

     total cpu time spent up to now is      152.4 secs

     total energy              =    -184.83182906 Ry
     estimated scf accuracy    <          1.6E-14 Ry

     iteration # 48     ecut=    80.00 Ry     beta= 0.20
     Davidson diagonalization with overlap

---- Real-time Memory Report at c_bands before calling an iterative solver
            83 MiB given to the printing process from OS
            61 MiB allocation reported by mallinfo(arena+hblkhd)
        244300 MiB available memory on the node where the printing process lives
------------------
     ethr =  1.00E-13,  avg # of iterations =  1.0

     total cpu time spent up to now is      153.3 secs

     total energy              =    -184.83182906 Ry
     estimated scf accuracy    <          5.6E-15 Ry

     iteration # 49     ecut=    80.00 Ry     beta= 0.20
     Davidson diagonalization with overlap

---- Real-time Memory Report at c_bands before calling an iterative solver
            83 MiB given to the printing process from OS
            61 MiB allocation reported by mallinfo(arena+hblkhd)
        244302 MiB available memory on the node where the printing process lives
------------------
     ethr =  1.00E-13,  avg # of iterations =  1.0

     total cpu time spent up to now is      154.2 secs

     End of self-consistent calculation

          k = 0.0000 0.0000 0.0000 ( 14903 PWs)   bands (ev):

   -66.6864 -40.8913 -40.6282 -40.6282 -20.1802 -18.8196 -11.7279  -8.5853
    -8.5853  -7.8030  -7.4300  -7.4300  -6.0295

     occupation numbers 
     1.0000   1.0000   1.0000   1.0000   1.0000   1.0000   1.0000   1.0000
     1.0000   1.0000   1.0000   1.0000   1.0000

          k = 0.0000 0.0550 0.0000 ( 14887 PWs)   bands (ev):

   -66.6855 -40.8893 -40.6380 -40.6304 -20.1442 -18.8049 -11.6868  -8.6671
    -8.5476  -8.0198  -7.4890  -7.2643  -6.0420

     occupation numbers 
     1.0000   1.0000   1.0000   1.0000   1.0000   1.0000   1.0000   1.0000
     1.0000   1.0000   1.0000   1.0000   1.0000

          k = 0.0000 0.1100 0.0000 ( 14865 PWs)   bands (ev):

   -66.6826 -40.8837 -40.6664 -40.6368 -20.0382 -18.7617 -11.5692  -8.8907
    -8.4368  -8.3764  -7.6504  -7.0761  -6.0905

     occupation numbers 
     1.0000   1.0000   1.0000   1.0000   1.0000   1.0000   1.0000   1.0000
     1.0000   1.0000   1.0000   1.0000   1.0000

          k = 0.0000 0.1650 0.0000 ( 14863 PWs)   bands (ev):

   -66.6781 -40.8749 -40.7108 -40.6469 -19.8675 -18.6921 -11.3945  -9.2011
    -8.7583  -8.2608  -7.8788  -7.0087  -6.2041

     occupation numbers 
     1.0000   1.0000   1.0000   1.0000   1.0000   1.0000   1.0000   1.0000
     1.0000   1.0000   1.0000   1.0000   1.0000

          k = 0.0000 0.2199 0.0000 ( 14819 PWs)   bands (ev):

   -66.6723 -40.8636 -40.7668 -40.6597 -19.6410 -18.6000 -11.2060  -9.5259
    -9.1483  -8.1368  -8.0330  -7.0799  -6.4056

     occupation numbers 
     1.0000   1.0000   1.0000   1.0000   1.0000   1.0000   1.0000   1.0000
     1.0000   1.0000   1.0000   1.0000   1.0000

          k = 0.0000 0.2749 0.0000 ( 14799 PWs)   bands (ev):

   -66.6658 -40.8509 -40.8294 -40.6740 -19.3717 -18.4912 -11.0897  -9.7760
    -9.5384  -8.3951  -7.7728  -7.2446  -6.6669

     occupation numbers 
     1.0000   1.0000   1.0000   1.0000   1.0000   1.0000   1.0000   1.0000
     1.0000   1.0000   1.0000   1.0000   1.0000

          k = 0.0000 0.3299 0.0000 ( 14811 PWs)   bands (ev):

   -66.6592 -40.8927 -40.8379 -40.6887 -19.0770 -18.3734 -11.1443  -9.9169
    -9.8813  -8.6326  -7.5058  -7.4369  -6.8956

     occupation numbers 
     1.0000   1.0000   1.0000   1.0000   1.0000   1.0000   1.0000   1.0000
     1.0000   1.0000   1.0000   1.0000   1.0000

          k = 0.0000 0.3849 0.0000 ( 14770 PWs)   bands (ev):

   -66.6530 -40.9512 -40.8257 -40.7023 -18.7797 -18.2566 -11.3443 -10.2648
    -9.9098  -8.8354  -7.6096  -7.2606  -6.9882

     occupation numbers 
     1.0000   1.0000   1.0000   1.0000   1.0000   1.0000   1.0000   1.0000
     1.0000   1.0000   1.0000   1.0000   1.0000

          k = 0.0000 0.4399 0.0000 ( 14726 PWs)   bands (ev):

   -66.6477 -41.0000 -40.8154 -40.7137 -18.5087 -18.1527 -11.5808 -10.5578
    -9.9680  -8.9941  -7.7413  -7.0628  -6.9157

     occupation numbers 
     1.0000   1.0000   1.0000   1.0000   1.0000   1.0000   1.0000   1.0000
     1.0000   1.0000   1.0000   1.0000   1.0000

          k = 0.0000 0.4949 0.0000 ( 14720 PWs)   bands (ev):

   -66.6440 -41.0350 -40.8080 -40.7219 -18.2983 -18.0740 -11.7778 -10.7706
   -10.0536  -9.1029  -7.8270  -6.9283  -6.7572

     occupation numbers 
     1.0000   1.0000   1.0000   1.0000   1.0000   1.0000   1.0000   1.0000
     1.0000   1.0000   1.0000   1.0000   1.0000

          k = 0.0000 0.5499 0.0000 ( 14732 PWs)   bands (ev):

   -66.6420 -41.0532 -40.8041 -40.7262 -18.1821 -18.0314 -11.8890 -10.8828
   -10.1138  -9.1581  -7.8687  -6.8615  -6.6358

     occupation numbers 
     1.0000   1.0000   1.0000   1.0000   1.0000   1.0000   1.0000   1.0000
     1.0000   1.0000   1.0000   1.0000   1.0000

          k = 0.0476 0.0825 0.0000 ( 14879 PWs)   bands (ev):

   -66.6835 -40.8856 -40.6570 -40.6349 -20.0733 -18.7760 -11.6074  -8.8191
    -8.4739  -8.2724  -7.6150  -7.1045  -6.0724

     occupation numbers 
     1.0000   1.0000   1.0000   1.0000   1.0000   1.0000   1.0000   1.0000
     1.0000   1.0000   1.0000   1.0000   1.0000

          k = 0.0476 0.1375 0.0000 ( 14866 PWs)   bands (ev):

   -66.6798 -40.8783 -40.6929 -40.6436 -19.9349 -18.7195 -11.4601  -9.0838
    -8.6041  -8.3330  -7.8458  -6.9731  -6.1534

     occupation numbers 
     1.0000   1.0000   1.0000   1.0000   1.0000   1.0000   1.0000   1.0000
     1.0000   1.0000   1.0000   1.0000   1.0000

          k = 0.0476 0.1925 0.0000 ( 14822 PWs)   bands (ev):

   -66.6747 -40.8683 -40.7424 -40.6557 -19.7361 -18.6386 -11.2744  -9.3983
    -8.9631  -8.1373  -8.1248  -6.9596  -6.3121

     occupation numbers 
     1.0000   1.0000   1.0000   1.0000   1.0000   1.0000   1.0000   1.0000
     1.0000   1.0000   1.0000   1.0000   1.0000

          k = 0.0476 0.2474 0.0000 ( 14793 PWs)   bands (ev):

   -66.6686 -40.8563 -40.8009 -40.6700 -19.4880 -18.5378 -11.1129  -9.6825
    -9.3394  -8.4031  -7.9080  -7.0681  -6.5464

     occupation numbers 
     1.0000   1.0000   1.0000   1.0000   1.0000   1.0000   1.0000   1.0000
     1.0000   1.0000   1.0000   1.0000   1.0000

          k = 0.0476 0.3024 0.0000 ( 14818 PWs)   bands (ev):

   -66.6620 -40.8630 -40.8434 -40.6854 -19.2053 -18.4239 -11.0792  -9.8455
    -9.7242  -8.6478  -7.6783  -7.2500  -6.7851

     occupation numbers 
     1.0000   1.0000   1.0000   1.0000   1.0000   1.0000   1.0000   1.0000
     1.0000   1.0000   1.0000   1.0000   1.0000

          k = 0.0476 0.3574 0.0000 ( 14790 PWs)   bands (ev):

   -66.6556 -40.9231 -40.8308 -40.7003 -18.9082 -18.3057 -11.2192 -10.0976
    -9.8830  -8.8449  -7.4938  -7.4483  -6.9045

     occupation numbers 
     1.0000   1.0000   1.0000   1.0000   1.0000   1.0000   1.0000   1.0000
     1.0000   1.0000   1.0000   1.0000   1.0000

          k = 0.0476 0.4124 0.0000 ( 14761 PWs)   bands (ev):

   -66.6498 -40.9761 -40.8196 -40.7136 -18.6223 -18.1941 -11.4440 -10.4313
    -9.9152  -8.9929  -7.6238  -7.3612  -6.8456

     occupation numbers 
     1.0000   1.0000   1.0000   1.0000   1.0000   1.0000   1.0000   1.0000
     1.0000   1.0000   1.0000   1.0000   1.0000

          k = 0.0476 0.4674 0.0000 ( 14735 PWs)   bands (ev):

   -66.6453 -41.0173 -40.8107 -40.7239 -18.3793 -18.1015 -11.6607 -10.6958
    -9.9938  -9.0952  -7.7564  -7.2331  -6.6977

     occupation numbers 
     1.0000   1.0000   1.0000   1.0000   1.0000   1.0000   1.0000   1.0000
     1.0000   1.0000   1.0000   1.0000   1.0000

          k = 0.0476 0.5224 0.0000 ( 14722 PWs)   bands (ev):

   -66.6425 -41.0435 -40.8051 -40.7306 -18.2138 -18.0399 -11.8138 -10.8658
   -10.0754  -9.1552  -7.8376  -7.1324  -6.5562

     occupation numbers 
     1.0000   1.0000   1.0000   1.0000   1.0000   1.0000   1.0000   1.0000
     1.0000   1.0000   1.0000   1.0000   1.0000

          k = 0.0476 0.5774 0.0000 ( 14726 PWs)   bands (ev):

   -66.6415 -41.0525 -40.8032 -40.7328 -18.1548 -18.0182 -11.8691 -10.9245
   -10.1089  -9.1749  -7.8648  -7.0961  -6.4967

     occupation numbers 
     1.0000   1.0000   1.0000   1.0000   1.0000   1.0000   1.0000   1.0000
     1.0000   1.0000   1.0000   1.0000   1.0000

          k = 0.0952 0.1650 0.0000 ( 14831 PWs)   bands (ev):

   -66.6755 -40.8699 -40.7332 -40.6551 -19.7684 -18.6516 -11.2990  -9.3490
    -8.8715  -8.1776  -8.1759  -6.8804  -6.2801

     occupation numbers 
     1.0000   1.0000   1.0000   1.0000   1.0000   1.0000   1.0000   1.0000
     1.0000   1.0000   1.0000   1.0000   1.0000

          k = 0.0952 0.2199 0.0000 ( 14819 PWs)   bands (ev):

   -66.6700 -40.8591 -40.7838 -40.6702 -19.5476 -18.5616 -11.1292  -9.6178
    -9.1688  -8.5330  -7.9965  -6.8853  -6.4762

     occupation numbers 
     1.0000   1.0000   1.0000   1.0000   1.0000   1.0000   1.0000   1.0000
     1.0000   1.0000   1.0000   1.0000   1.0000

          k = 0.0952 0.2749 0.0000 ( 14797 PWs)   bands (ev):

   -66.6638 -40.8470 -40.8401 -40.6873 -19.2853 -18.4550 -11.0359  -9.8017
    -9.5208  -8.8216  -7.8346  -7.0017  -6.6930

     occupation numbers 
     1.0000   1.0000   1.0000   1.0000   1.0000   1.0000   1.0000   1.0000
     1.0000   1.0000   1.0000   1.0000   1.0000

          k = 0.0952 0.3299 0.0000 ( 14799 PWs)   bands (ev):

   -66.6574 -40.8971 -40.8345 -40.7048 -18.9987 -18.3393 -11.1017  -9.9161
    -9.8466  -9.0080  -7.7493  -7.1918  -6.8189

     occupation numbers 
     1.0000   1.0000   1.0000   1.0000   1.0000   1.0000   1.0000   1.0000
     1.0000   1.0000   1.0000   1.0000   1.0000

          k = 0.0952 0.3849 0.0000 ( 14775 PWs)   bands (ev):

   -66.6515 -40.9498 -40.8228 -40.7211 -18.7103 -18.2243 -11.2854 -10.3009
    -9.8433  -9.1144  -7.7255  -7.4061  -6.7893

     occupation numbers 
     1.0000   1.0000   1.0000   1.0000   1.0000   1.0000   1.0000   1.0000
     1.0000   1.0000   1.0000   1.0000   1.0000

          k = 0.0952 0.4399 0.0000 ( 14747 PWs)   bands (ev):

   -66.6465 -40.9938 -40.8130 -40.7348 -18.4484 -18.1217 -11.4919 -10.6281
    -9.8975  -9.1670  -7.6728  -7.6044  -6.6632

     occupation numbers 
     1.0000   1.0000   1.0000   1.0000   1.0000   1.0000   1.0000   1.0000
     1.0000   1.0000   1.0000   1.0000   1.0000

          k = 0.0952 0.4949 0.0000 ( 14735 PWs)   bands (ev):

   -66.6429 -41.0253 -40.8060 -40.7446 -18.2458 -18.0437 -11.6606 -10.8648
    -9.9931  -9.1860  -7.7565  -7.5936  -6.5102

     occupation numbers 
     1.0000   1.0000   1.0000   1.0000   1.0000   1.0000   1.0000   1.0000
     1.0000   1.0000   1.0000   1.0000   1.0000

          k = 0.0952 0.5499 0.0000 ( 14720 PWs)   bands (ev):

   -66.6410 -41.0417 -40.8023 -40.7497 -18.1343 -18.0015 -11.7550 -10.9888
   -10.0621  -9.1894  -7.8396  -7.5416  -6.4006

     occupation numbers 
     1.0000   1.0000   1.0000   1.0000   1.0000   1.0000   1.0000   1.0000
     1.0000   1.0000   1.0000   1.0000   1.0000

          k = 0.1429 0.2474 0.0000 ( 14805 PWs)   bands (ev):

   -66.6644 -40.8482 -40.8312 -40.6890 -19.3125 -18.4654 -11.0207  -9.7821
    -9.3990  -8.9454  -7.8949  -6.8905  -6.6592

     occupation numbers 
     1.0000   1.0000   1.0000   1.0000   1.0000   1.0000   1.0000   1.0000
     1.0000   1.0000   1.0000   1.0000   1.0000

          k = 0.1429 0.3024 0.0000 ( 14800 PWs)   bands (ev):

   -66.6584 -40.8806 -40.8364 -40.7100 -19.0454 -18.3563 -11.0291  -9.8197
    -9.7530  -9.1880  -7.9041  -7.0038  -6.7751

     occupation numbers 
     1.0000   1.0000   1.0000   1.0000   1.0000   1.0000   1.0000   1.0000
     1.0000   1.0000   1.0000   1.0000   1.0000

          k = 0.1429 0.3574 0.0000 ( 14795 PWs)   bands (ev):

   -66.6526 -40.9281 -40.8249 -40.7310 -18.7658 -18.2425 -11.1542 -10.1775
    -9.7729  -9.2717  -8.0141  -7.1975  -6.7688

     occupation numbers 
     1.0000   1.0000   1.0000   1.0000   1.0000   1.0000   1.0000   1.0000
     1.0000   1.0000   1.0000   1.0000   1.0000

          k = 0.1429 0.4124 0.0000 ( 14779 PWs)   bands (ev):

   -66.6473 -40.9697 -40.8147 -40.7499 -18.4986 -18.1346 -11.3198 -10.5653
    -9.7735  -9.2787  -8.0994  -7.4247  -6.6715

     occupation numbers 
     1.0000   1.0000   1.0000   1.0000   1.0000   1.0000   1.0000   1.0000
     1.0000   1.0000   1.0000   1.0000   1.0000

          k = 0.1429 0.4674 0.0000 ( 14755 PWs)   bands (ev):

   -66.6432 -41.0021 -40.8066 -40.7648 -18.2733 -18.0445 -11.4678 -10.8690
    -9.8651  -9.2449  -8.1017  -7.6394  -6.5221

     occupation numbers 
     1.0000   1.0000   1.0000   1.0000   1.0000   1.0000   1.0000   1.0000
     1.0000   1.0000   1.0000   1.0000   1.0000

          k = 0.1429 0.5224 0.0000 ( 14748 PWs)   bands (ev):

   -66.6406 -41.0226 -40.8015 -40.7743 -18.1210 -17.9842 -11.5678 -11.0619
    -9.9733  -9.2009  -8.0718  -7.7971  -6.3733

     occupation numbers 
     1.0000   1.0000   1.0000   1.0000   1.0000   1.0000   1.0000   1.0000
     1.0000   1.0000   1.0000   1.0000   1.0000

          k = 0.1429 0.5774 0.0000 ( 14726 PWs)   bands (ev):

   -66.6397 -41.0296 -40.7997 -40.7776 -18.0669 -17.9629 -11.6030 -11.1280
   -10.0188  -9.1805  -8.0575  -7.8563  -6.3081

     occupation numbers 
     1.0000   1.0000   1.0000   1.0000   1.0000   1.0000   1.0000   1.0000
     1.0000   1.0000   1.0000   1.0000   1.0000

          k = 0.1905 0.3299 0.0000 ( 14785 PWs)   bands (ev):

   -66.6529 -40.9193 -40.8256 -40.7357 -18.7848 -18.2486 -11.1024 -10.1186
    -9.7411  -9.3481  -8.1273  -7.1116  -6.7647

     occupation numbers 
     1.0000   1.0000   1.0000   1.0000   1.0000   1.0000   1.0000   1.0000
     1.0000   1.0000   1.0000   1.0000   1.0000

          k = 0.1905 0.3849 0.0000 ( 14761 PWs)   bands (ev):

   -66.6478 -40.9534 -40.8156 -40.7616 -18.5249 -18.1408 -11.2080 -10.5229
    -9.6634  -9.3606  -8.3893  -7.3036  -6.6868

     occupation numbers 
     1.0000   1.0000   1.0000   1.0000   1.0000   1.0000   1.0000   1.0000
     1.0000   1.0000   1.0000   1.0000   1.0000

          k = 0.1905 0.4399 0.0000 ( 14749 PWs)   bands (ev):

   -66.6435 -40.9807 -40.8071 -40.7844 -18.2917 -18.0438 -11.2999 -10.8722
    -9.6979  -9.3011  -8.5568  -7.5333  -6.5505

     occupation numbers 
     1.0000   1.0000   1.0000   1.0000   1.0000   1.0000   1.0000   1.0000
     1.0000   1.0000   1.0000   1.0000   1.0000

          k = 0.1905 0.4949 0.0000 ( 14738 PWs)   bands (ev):

   -66.6404 -40.9997 -40.8014 -40.8010 -18.1136 -17.9697 -11.3575 -11.1244
    -9.8350  -9.2122  -8.6051  -7.7471  -6.3786

     occupation numbers 
     1.0000   1.0000   1.0000   1.0000   1.0000   1.0000   1.0000   1.0000
     1.0000   1.0000   1.0000   1.0000   1.0000

          k = 0.1905 0.5499 0.0000 ( 14758 PWs)   bands (ev):

   -66.6387 -41.0095 -40.8104 -40.7978 -18.0166 -17.9294 -11.3815 -11.2564
    -9.9484  -9.1424  -8.6072  -7.8827  -6.2477

     occupation numbers 
     1.0000   1.0000   1.0000   1.0000   1.0000   1.0000   1.0000   1.0000
     1.0000   1.0000   1.0000   1.0000   1.0000

          k = 0.2381 0.4124 0.0000 ( 14762 PWs)   bands (ev):

   -66.6435 -40.9715 -40.8072 -40.7930 -18.2982 -18.0434 -11.2318 -10.8732
    -9.5881  -9.3239  -8.7755  -7.4904  -6.5639

     occupation numbers 
     1.0000   1.0000   1.0000   1.0000   1.0000   1.0000   1.0000   1.0000
     1.0000   1.0000   1.0000   1.0000   1.0000

          k = 0.2381 0.4674 0.0000 ( 14743 PWs)   bands (ev):

   -66.6402 -40.9822 -40.8212 -40.8007 -18.1106 -17.9615 -11.2101 -11.1602
    -9.6505  -9.2202  -9.0326  -7.7118  -6.3888

     occupation numbers 
     1.0000   1.0000   1.0000   1.0000   1.0000   1.0000   1.0000   1.0000
     1.0000   1.0000   1.0000   1.0000   1.0000

          k = 0.2381 0.5224 0.0000 ( 14764 PWs)   bands (ev):

   -66.6381 -40.9870 -40.8412 -40.7965 -17.9859 -17.9064 -11.3461 -11.1561
    -9.8402  -9.1051  -9.1035  -7.9054  -6.2083

     occupation numbers 
     1.0000   1.0000   1.0000   1.0000   1.0000   1.0000   1.0000   1.0000
     1.0000   1.0000   1.0000   1.0000   1.0000

          k = 0.2381 0.5774 0.0000 ( 14780 PWs)   bands (ev):

   -66.6373 -40.9881 -40.8485 -40.7951 -17.9421 -17.8869 -11.4103 -11.1237
    -9.9391  -9.1136  -9.0481  -7.9876  -6.1262

     occupation numbers 
     1.0000   1.0000   1.0000   1.0000   1.0000   1.0000   1.0000   1.0000
     1.0000   1.0000   1.0000   1.0000   1.0000

          k = 0.2857 0.4949 0.0000 ( 14734 PWs)   bands (ev):

   -66.6379 -40.9755 -40.8555 -40.7961 -17.9756 -17.8982 -11.3782 -11.0520
    -9.7292  -9.3761  -9.0876  -7.9140  -6.1936

     occupation numbers 
     1.0000   1.0000   1.0000   1.0000   1.0000   1.0000   1.0000   1.0000
     1.0000   1.0000   1.0000   1.0000   1.0000

          k = 0.2857 0.5499 0.0000 ( 14738 PWs)   bands (ev):

   -66.6366 -40.9662 -40.8793 -40.7937 -17.9034 -17.8636 -11.4946 -10.8818
    -9.9726  -9.4480  -8.9734  -8.0653  -6.0420

     occupation numbers 
     1.0000   1.0000   1.0000   1.0000   1.0000   1.0000   1.0000   1.0000
     1.0000   1.0000   1.0000   1.0000   1.0000

          k = 0.3333 0.5774 0.0000 ( 14760 PWs)   bands (ev):

   -66.6361 -40.9504 -40.9010 -40.7927 -17.8750 -17.8485 -11.5467 -10.6825
   -10.1581  -9.5319  -8.9079  -8.1407  -5.9665

     occupation numbers 
     1.0000   1.0000   1.0000   1.0000   1.0000   1.0000   1.0000   1.0000
     1.0000   1.0000   1.0000   1.0000   1.0000

     highest occupied level (ev):    -5.9665

!    total energy              =    -184.83182906 Ry
     estimated scf accuracy    <          9.9E-16 Ry

     convergence has been achieved in  49 iterations

     Forces acting on atoms (cartesian axes, Ry/au):

     atom    1 type  1   force =     0.00000000    0.00000000    0.00000000
     atom    2 type  2   force =     0.00000000    0.00000000   -0.00068361
     atom    3 type  2   force =    -0.00000000    0.00000000    0.00068361
     The non-local contrib.  to forces
     atom    1 type  1   force =     0.00000000    0.00000000    0.00000000
     atom    2 type  2   force =    -0.00000000   -0.00000000   -0.25634419
     atom    3 type  2   force =     0.00000000   -0.00000000    0.25634419
     The ionic contribution  to forces
     atom    1 type  1   force =     0.00000001    0.00000097    0.00000000
     atom    2 type  2   force =    -0.00000000   -0.00000048   46.86645319
     atom    3 type  2   force =    -0.00000000   -0.00000048  -46.86645319
     The local contribution  to forces
     atom    1 type  1   force =     0.00000000    0.00002380    0.00000000
     atom    2 type  2   force =    -0.00000001    0.00000001  -46.61500939
     atom    3 type  2   force =    -0.00000001    0.00000001   46.61500939
     The core correction contribution to forces
     atom    1 type  1   force =     0.00000000   -0.00000040   -0.00000000
     atom    2 type  2   force =     0.00000000   -0.00000000    0.00421673
     atom    3 type  2   force =     0.00000000   -0.00000000   -0.00421673
     The Hubbard contrib.    to forces
     atom    1 type  1   force =     0.00000000    0.00000000    0.00000000
     atom    2 type  2   force =     0.00000000    0.00000000    0.00000000
     atom    3 type  2   force =     0.00000000    0.00000000    0.00000000
     The SCF correction term to forces
     atom    1 type  1   force =    -0.00000000   -0.00000000    0.00000000
     atom    2 type  2   force =    -0.00000000   -0.00000000    0.00000004
     atom    3 type  2   force =    -0.00000000   -0.00000000   -0.00000004

     Total force =     0.000967     Total SCF correction =     0.000000

     Entering Dynamics:    iteration =     2

     <vel(dt)|acc(dt)> =   1.00000000

ATOMIC_POSITIONS (crystal)
Mo               0.3333333000        0.6666666000        0.5000000000    0   0   0
S                0.6666666670        0.3333333330        0.5735960676    0   0   1
S                0.6666666670        0.3333333330        0.4264039324    0   0   1



     Writing config-only to output data dir ./tmp/MoS2.save/ :
     XML data file
     NEW-OLD atomic charge density approx. for the potential

     negative rho (up, down):  6.911E-08 0.000E+00

     total cpu time spent up to now is      154.4 secs

     per-process dynamical memory:    64.4 Mb

     Self-consistent Calculation

     iteration #  1     ecut=    80.00 Ry     beta= 0.20
     Davidson diagonalization with overlap

---- Real-time Memory Report at c_bands before calling an iterative solver
            84 MiB given to the printing process from OS
            62 MiB allocation reported by mallinfo(arena+hblkhd)
        244301 MiB available memory on the node where the printing process lives
------------------
     ethr =  1.00E-06,  avg # of iterations =  2.0

     Threshold (ethr) on eigenvalues was too large:
     Diagonalizing with lowered threshold

     Davidson diagonalization with overlap

---- Real-time Memory Report at c_bands before calling an iterative solver
            84 MiB given to the printing process from OS
            62 MiB allocation reported by mallinfo(arena+hblkhd)
        244300 MiB available memory on the node where the printing process lives
------------------
     ethr =  4.48E-09,  avg # of iterations =  4.8

     negative rho (up, down):  5.326E-08 0.000E+00

     total cpu time spent up to now is      156.9 secs

     total energy              =    -184.83183007 Ry
     estimated scf accuracy    <       0.00000005 Ry

     iteration #  2     ecut=    80.00 Ry     beta= 0.20
     Davidson diagonalization with overlap

---- Real-time Memory Report at c_bands before calling an iterative solver
            84 MiB given to the printing process from OS
            62 MiB allocation reported by mallinfo(arena+hblkhd)
        244300 MiB available memory on the node where the printing process lives
------------------
     ethr =  2.00E-10,  avg # of iterations =  5.6

     negative rho (up, down):  5.086E-08 0.000E+00

     total cpu time spent up to now is      158.4 secs

     total energy              =    -184.83183009 Ry
     estimated scf accuracy    <       0.00000009 Ry

     iteration #  3     ecut=    80.00 Ry     beta= 0.20
     Davidson diagonalization with overlap

---- Real-time Memory Report at c_bands before calling an iterative solver
            84 MiB given to the printing process from OS
            62 MiB allocation reported by mallinfo(arena+hblkhd)
        244301 MiB available memory on the node where the printing process lives
------------------
     ethr =  2.00E-10,  avg # of iterations =  1.0

     total cpu time spent up to now is      159.3 secs

     total energy              =    -184.83183005 Ry
     estimated scf accuracy    <       0.00000007 Ry

     iteration #  4     ecut=    80.00 Ry     beta= 0.20
     Davidson diagonalization with overlap

---- Real-time Memory Report at c_bands before calling an iterative solver
            84 MiB given to the printing process from OS
            62 MiB allocation reported by mallinfo(arena+hblkhd)
        244301 MiB available memory on the node where the printing process lives
------------------
     ethr =  2.00E-10,  avg # of iterations =  6.0

     negative rho (up, down):  1.007E-08 0.000E+00

     total cpu time spent up to now is      161.1 secs

     total energy              =    -184.83183012 Ry
     estimated scf accuracy    <       0.00000039 Ry

     iteration #  5     ecut=    80.00 Ry     beta= 0.20
     Davidson diagonalization with overlap

---- Real-time Memory Report at c_bands before calling an iterative solver
            84 MiB given to the printing process from OS
            62 MiB allocation reported by mallinfo(arena+hblkhd)
        244300 MiB available memory on the node where the printing process lives
------------------
     ethr =  2.00E-10,  avg # of iterations =  1.0

     total cpu time spent up to now is      162.1 secs

     total energy              =    -184.83183004 Ry
     estimated scf accuracy    <       0.00000033 Ry

     iteration #  6     ecut=    80.00 Ry     beta= 0.20
     Davidson diagonalization with overlap

---- Real-time Memory Report at c_bands before calling an iterative solver
            84 MiB given to the printing process from OS
            62 MiB allocation reported by mallinfo(arena+hblkhd)
        244300 MiB available memory on the node where the printing process lives
------------------
     ethr =  2.00E-10,  avg # of iterations =  5.7

     total cpu time spent up to now is      163.6 secs

     total energy              =    -184.83183008 Ry
     estimated scf accuracy    <          2.1E-09 Ry

     iteration #  7     ecut=    80.00 Ry     beta= 0.20
     Davidson diagonalization with overlap

---- Real-time Memory Report at c_bands before calling an iterative solver
            84 MiB given to the printing process from OS
            62 MiB allocation reported by mallinfo(arena+hblkhd)
        244300 MiB available memory on the node where the printing process lives
------------------
     ethr =  8.12E-12,  avg # of iterations =  8.2

     total cpu time spent up to now is      166.1 secs

     total energy              =    -184.83183008 Ry
     estimated scf accuracy    <       0.00000006 Ry

     iteration #  8     ecut=    80.00 Ry     beta= 0.20
     Davidson diagonalization with overlap

---- Real-time Memory Report at c_bands before calling an iterative solver
            84 MiB given to the printing process from OS
            62 MiB allocation reported by mallinfo(arena+hblkhd)
        244297 MiB available memory on the node where the printing process lives
------------------
     ethr =  8.12E-12,  avg # of iterations =  3.8

     total cpu time spent up to now is      167.3 secs

     total energy              =    -184.83183008 Ry
     estimated scf accuracy    <       0.00000003 Ry

     iteration #  9     ecut=    80.00 Ry     beta= 0.20
     Davidson diagonalization with overlap

---- Real-time Memory Report at c_bands before calling an iterative solver
            84 MiB given to the printing process from OS
            62 MiB allocation reported by mallinfo(arena+hblkhd)
        244300 MiB available memory on the node where the printing process lives
------------------
     ethr =  8.12E-12,  avg # of iterations =  7.5

     total cpu time spent up to now is      169.4 secs

     total energy              =    -184.83183008 Ry
     estimated scf accuracy    <          5.5E-09 Ry

     iteration # 10     ecut=    80.00 Ry     beta= 0.20
     Davidson diagonalization with overlap

---- Real-time Memory Report at c_bands before calling an iterative solver
            84 MiB given to the printing process from OS
            62 MiB allocation reported by mallinfo(arena+hblkhd)
        244300 MiB available memory on the node where the printing process lives
------------------
     ethr =  8.12E-12,  avg # of iterations =  2.4

     total cpu time spent up to now is      170.5 secs

     total energy              =    -184.83183008 Ry
     estimated scf accuracy    <          2.0E-09 Ry

     iteration # 11     ecut=    80.00 Ry     beta= 0.20
     Davidson diagonalization with overlap

---- Real-time Memory Report at c_bands before calling an iterative solver
            84 MiB given to the printing process from OS
            62 MiB allocation reported by mallinfo(arena+hblkhd)
        244300 MiB available memory on the node where the printing process lives
------------------
     ethr =  7.84E-12,  avg # of iterations =  4.1

     total cpu time spent up to now is      171.8 secs

     total energy              =    -184.83183008 Ry
     estimated scf accuracy    <          7.3E-11 Ry

     iteration # 12     ecut=    80.00 Ry     beta= 0.20
     Davidson diagonalization with overlap

---- Real-time Memory Report at c_bands before calling an iterative solver
            84 MiB given to the printing process from OS
            62 MiB allocation reported by mallinfo(arena+hblkhd)
        244300 MiB available memory on the node where the printing process lives
------------------
     ethr =  2.80E-13,  avg # of iterations =  4.7

     total cpu time spent up to now is      173.2 secs

     total energy              =    -184.83183008 Ry
     estimated scf accuracy    <          1.9E-10 Ry

     iteration # 13     ecut=    80.00 Ry     beta= 0.20
     Davidson diagonalization with overlap

---- Real-time Memory Report at c_bands before calling an iterative solver
            84 MiB given to the printing process from OS
            62 MiB allocation reported by mallinfo(arena+hblkhd)
        244300 MiB available memory on the node where the printing process lives
------------------
     ethr =  2.80E-13,  avg # of iterations =  4.4

     total cpu time spent up to now is      174.5 secs

     total energy              =    -184.83183008 Ry
     estimated scf accuracy    <          2.0E-12 Ry

     iteration # 14     ecut=    80.00 Ry     beta= 0.20
     Davidson diagonalization with overlap

---- Real-time Memory Report at c_bands before calling an iterative solver
            84 MiB given to the printing process from OS
            62 MiB allocation reported by mallinfo(arena+hblkhd)
        244301 MiB available memory on the node where the printing process lives
------------------
     ethr =  1.00E-13,  avg # of iterations =  2.8

     total cpu time spent up to now is      175.5 secs

     total energy              =    -184.83183008 Ry
     estimated scf accuracy    <          4.2E-13 Ry

     iteration # 15     ecut=    80.00 Ry     beta= 0.20
     Davidson diagonalization with overlap

---- Real-time Memory Report at c_bands before calling an iterative solver
            84 MiB given to the printing process from OS
            62 MiB allocation reported by mallinfo(arena+hblkhd)
        244301 MiB available memory on the node where the printing process lives
------------------
     ethr =  1.00E-13,  avg # of iterations =  2.6

     total cpu time spent up to now is      176.5 secs

     total energy              =    -184.83183008 Ry
     estimated scf accuracy    <          7.1E-12 Ry

     iteration # 16     ecut=    80.00 Ry     beta= 0.20
     Davidson diagonalization with overlap

---- Real-time Memory Report at c_bands before calling an iterative solver
            84 MiB given to the printing process from OS
            62 MiB allocation reported by mallinfo(arena+hblkhd)
        244301 MiB available memory on the node where the printing process lives
------------------
     ethr =  1.00E-13,  avg # of iterations =  1.0

     total cpu time spent up to now is      177.4 secs

     total energy              =    -184.83183008 Ry
     estimated scf accuracy    <          7.9E-12 Ry

     iteration # 17     ecut=    80.00 Ry     beta= 0.20
     Davidson diagonalization with overlap

---- Real-time Memory Report at c_bands before calling an iterative solver
            84 MiB given to the printing process from OS
            62 MiB allocation reported by mallinfo(arena+hblkhd)
        244301 MiB available memory on the node where the printing process lives
------------------
     ethr =  1.00E-13,  avg # of iterations =  1.0

     total cpu time spent up to now is      178.3 secs

     total energy              =    -184.83183008 Ry
     estimated scf accuracy    <          1.0E-11 Ry

     iteration # 18     ecut=    80.00 Ry     beta= 0.20
     Davidson diagonalization with overlap

---- Real-time Memory Report at c_bands before calling an iterative solver
            84 MiB given to the printing process from OS
            62 MiB allocation reported by mallinfo(arena+hblkhd)
        244301 MiB available memory on the node where the printing process lives
------------------
     ethr =  1.00E-13,  avg # of iterations =  1.0

     total cpu time spent up to now is      179.2 secs

     total energy              =    -184.83183008 Ry
     estimated scf accuracy    <          5.6E-12 Ry

     iteration # 19     ecut=    80.00 Ry     beta= 0.20
     Davidson diagonalization with overlap

---- Real-time Memory Report at c_bands before calling an iterative solver
            84 MiB given to the printing process from OS
            62 MiB allocation reported by mallinfo(arena+hblkhd)
        244301 MiB available memory on the node where the printing process lives
------------------
     ethr =  1.00E-13,  avg # of iterations =  1.3

     total cpu time spent up to now is      180.1 secs

     total energy              =    -184.83183008 Ry
     estimated scf accuracy    <          7.4E-13 Ry

     iteration # 20     ecut=    80.00 Ry     beta= 0.20
     Davidson diagonalization with overlap

---- Real-time Memory Report at c_bands before calling an iterative solver
            84 MiB given to the printing process from OS
            62 MiB allocation reported by mallinfo(arena+hblkhd)
        244301 MiB available memory on the node where the printing process lives
------------------
     ethr =  1.00E-13,  avg # of iterations =  1.0

     total cpu time spent up to now is      181.0 secs

     total energy              =    -184.83183008 Ry
     estimated scf accuracy    <          4.6E-13 Ry

     iteration # 21     ecut=    80.00 Ry     beta= 0.20
     Davidson diagonalization with overlap

---- Real-time Memory Report at c_bands before calling an iterative solver
            84 MiB given to the printing process from OS
            62 MiB allocation reported by mallinfo(arena+hblkhd)
        244302 MiB available memory on the node where the printing process lives
------------------
     ethr =  1.00E-13,  avg # of iterations =  1.0

     total cpu time spent up to now is      181.9 secs

     total energy              =    -184.83183008 Ry
     estimated scf accuracy    <          1.4E-13 Ry

     iteration # 22     ecut=    80.00 Ry     beta= 0.20
     Davidson diagonalization with overlap

---- Real-time Memory Report at c_bands before calling an iterative solver
            84 MiB given to the printing process from OS
            62 MiB allocation reported by mallinfo(arena+hblkhd)
        244294 MiB available memory on the node where the printing process lives
------------------
     ethr =  1.00E-13,  avg # of iterations =  1.0

     total cpu time spent up to now is      182.9 secs

     total energy              =    -184.83183008 Ry
     estimated scf accuracy    <          1.5E-13 Ry

     iteration # 23     ecut=    80.00 Ry     beta= 0.20
     Davidson diagonalization with overlap

---- Real-time Memory Report at c_bands before calling an iterative solver
            84 MiB given to the printing process from OS
            62 MiB allocation reported by mallinfo(arena+hblkhd)
        244294 MiB available memory on the node where the printing process lives
------------------
     ethr =  1.00E-13,  avg # of iterations =  1.0

     total cpu time spent up to now is      183.8 secs

     total energy              =    -184.83183008 Ry
     estimated scf accuracy    <          2.7E-13 Ry

     iteration # 24     ecut=    80.00 Ry     beta= 0.20
     Davidson diagonalization with overlap

---- Real-time Memory Report at c_bands before calling an iterative solver
            84 MiB given to the printing process from OS
            62 MiB allocation reported by mallinfo(arena+hblkhd)
        244294 MiB available memory on the node where the printing process lives
------------------
     ethr =  1.00E-13,  avg # of iterations =  1.0

     total cpu time spent up to now is      184.7 secs

     total energy              =    -184.83183008 Ry
     estimated scf accuracy    <          4.9E-13 Ry

     iteration # 25     ecut=    80.00 Ry     beta= 0.20
     Davidson diagonalization with overlap

---- Real-time Memory Report at c_bands before calling an iterative solver
            84 MiB given to the printing process from OS
            62 MiB allocation reported by mallinfo(arena+hblkhd)
        244295 MiB available memory on the node where the printing process lives
------------------
     ethr =  1.00E-13,  avg # of iterations =  1.0

     total cpu time spent up to now is      185.6 secs

     total energy              =    -184.83183008 Ry
     estimated scf accuracy    <          4.9E-13 Ry

     iteration # 26     ecut=    80.00 Ry     beta= 0.20
     Davidson diagonalization with overlap

---- Real-time Memory Report at c_bands before calling an iterative solver
            84 MiB given to the printing process from OS
            62 MiB allocation reported by mallinfo(arena+hblkhd)
        244295 MiB available memory on the node where the printing process lives
------------------
     ethr =  1.00E-13,  avg # of iterations =  1.0

     total cpu time spent up to now is      186.5 secs

     total energy              =    -184.83183008 Ry
     estimated scf accuracy    <          6.3E-14 Ry

     iteration # 27     ecut=    80.00 Ry     beta= 0.20
     Davidson diagonalization with overlap

---- Real-time Memory Report at c_bands before calling an iterative solver
            84 MiB given to the printing process from OS
            62 MiB allocation reported by mallinfo(arena+hblkhd)
        244295 MiB available memory on the node where the printing process lives
------------------
     ethr =  1.00E-13,  avg # of iterations =  1.0

     total cpu time spent up to now is      187.4 secs

     total energy              =    -184.83183008 Ry
     estimated scf accuracy    <          3.8E-15 Ry

     iteration # 28     ecut=    80.00 Ry     beta= 0.20
     Davidson diagonalization with overlap

---- Real-time Memory Report at c_bands before calling an iterative solver
            84 MiB given to the printing process from OS
            62 MiB allocation reported by mallinfo(arena+hblkhd)
        244295 MiB available memory on the node where the printing process lives
------------------
     ethr =  1.00E-13,  avg # of iterations =  1.0

     total cpu time spent up to now is      188.4 secs

     total energy              =    -184.83183008 Ry
     estimated scf accuracy    <          4.1E-14 Ry

     iteration # 29     ecut=    80.00 Ry     beta= 0.20
     Davidson diagonalization with overlap

---- Real-time Memory Report at c_bands before calling an iterative solver
            84 MiB given to the printing process from OS
            62 MiB allocation reported by mallinfo(arena+hblkhd)
        244297 MiB available memory on the node where the printing process lives
------------------
     ethr =  1.00E-13,  avg # of iterations =  1.0

     total cpu time spent up to now is      189.3 secs

     total energy              =    -184.83183008 Ry
     estimated scf accuracy    <          5.2E-14 Ry

     iteration # 30     ecut=    80.00 Ry     beta= 0.20
     Davidson diagonalization with overlap

---- Real-time Memory Report at c_bands before calling an iterative solver
            84 MiB given to the printing process from OS
            62 MiB allocation reported by mallinfo(arena+hblkhd)
        244297 MiB available memory on the node where the printing process lives
------------------
     ethr =  1.00E-13,  avg # of iterations =  1.0

     total cpu time spent up to now is      190.2 secs

     total energy              =    -184.83183008 Ry
     estimated scf accuracy    <          3.0E-14 Ry

     iteration # 31     ecut=    80.00 Ry     beta= 0.20
     Davidson diagonalization with overlap

---- Real-time Memory Report at c_bands before calling an iterative solver
            84 MiB given to the printing process from OS
            62 MiB allocation reported by mallinfo(arena+hblkhd)
        244297 MiB available memory on the node where the printing process lives
------------------
     ethr =  1.00E-13,  avg # of iterations =  1.0

     total cpu time spent up to now is      191.1 secs

     total energy              =    -184.83183008 Ry
     estimated scf accuracy    <          2.0E-14 Ry

     iteration # 32     ecut=    80.00 Ry     beta= 0.20
     Davidson diagonalization with overlap

---- Real-time Memory Report at c_bands before calling an iterative solver
            84 MiB given to the printing process from OS
            62 MiB allocation reported by mallinfo(arena+hblkhd)
        244297 MiB available memory on the node where the printing process lives
------------------
     ethr =  1.00E-13,  avg # of iterations =  1.0

     total cpu time spent up to now is      192.0 secs

     total energy              =    -184.83183008 Ry
     estimated scf accuracy    <          7.7E-15 Ry

     iteration # 33     ecut=    80.00 Ry     beta= 0.20
     Davidson diagonalization with overlap

---- Real-time Memory Report at c_bands before calling an iterative solver
            84 MiB given to the printing process from OS
            62 MiB allocation reported by mallinfo(arena+hblkhd)
        244297 MiB available memory on the node where the printing process lives
------------------
     ethr =  1.00E-13,  avg # of iterations =  1.0

     total cpu time spent up to now is      193.0 secs

     total energy              =    -184.83183008 Ry
     estimated scf accuracy    <          7.0E-15 Ry

     iteration # 34     ecut=    80.00 Ry     beta= 0.20
     Davidson diagonalization with overlap

---- Real-time Memory Report at c_bands before calling an iterative solver
            84 MiB given to the printing process from OS
            62 MiB allocation reported by mallinfo(arena+hblkhd)
        244297 MiB available memory on the node where the printing process lives
------------------
     ethr =  1.00E-13,  avg # of iterations =  1.0

     total cpu time spent up to now is      193.9 secs

     total energy              =    -184.83183008 Ry
     estimated scf accuracy    <          1.9E-14 Ry

     iteration # 35     ecut=    80.00 Ry     beta= 0.20
     Davidson diagonalization with overlap

---- Real-time Memory Report at c_bands before calling an iterative solver
            84 MiB given to the printing process from OS
            62 MiB allocation reported by mallinfo(arena+hblkhd)
        244297 MiB available memory on the node where the printing process lives
------------------
     ethr =  1.00E-13,  avg # of iterations =  1.0

     total cpu time spent up to now is      194.8 secs

     total energy              =    -184.83183008 Ry
     estimated scf accuracy    <          7.7E-15 Ry

     iteration # 36     ecut=    80.00 Ry     beta= 0.20
     Davidson diagonalization with overlap

---- Real-time Memory Report at c_bands before calling an iterative solver
            84 MiB given to the printing process from OS
            62 MiB allocation reported by mallinfo(arena+hblkhd)
        244297 MiB available memory on the node where the printing process lives
------------------
     ethr =  1.00E-13,  avg # of iterations =  1.0

     total cpu time spent up to now is      195.7 secs

     End of self-consistent calculation

          k = 0.0000 0.0000 0.0000 ( 14903 PWs)   bands (ev):

   -66.6867 -40.8917 -40.6287 -40.6287 -20.1825 -18.8199 -11.7301  -8.5893
    -8.5893  -7.8019  -7.4332  -7.4332  -6.0278

     occupation numbers 
     1.0000   1.0000   1.0000   1.0000   1.0000   1.0000   1.0000   1.0000
     1.0000   1.0000   1.0000   1.0000   1.0000

          k = 0.0000 0.0550 0.0000 ( 14887 PWs)   bands (ev):

   -66.6857 -40.8898 -40.6386 -40.6310 -20.1466 -18.8053 -11.6891  -8.6711
    -8.5516  -8.0201  -7.4921  -7.2660  -6.0404

     occupation numbers 
     1.0000   1.0000   1.0000   1.0000   1.0000   1.0000   1.0000   1.0000
     1.0000   1.0000   1.0000   1.0000   1.0000

          k = 0.0000 0.1100 0.0000 ( 14865 PWs)   bands (ev):

   -66.6828 -40.8842 -40.6670 -40.6374 -20.0406 -18.7621 -11.5715  -8.8945
    -8.4408  -8.3774  -7.6535  -7.0769  -6.0891

     occupation numbers 
     1.0000   1.0000   1.0000   1.0000   1.0000   1.0000   1.0000   1.0000
     1.0000   1.0000   1.0000   1.0000   1.0000

          k = 0.0000 0.1650 0.0000 ( 14863 PWs)   bands (ev):

   -66.6783 -40.8753 -40.7114 -40.6475 -19.8698 -18.6926 -11.3969  -9.2047
    -8.7597  -8.2647  -7.8819  -7.0089  -6.2030

     occupation numbers 
     1.0000   1.0000   1.0000   1.0000   1.0000   1.0000   1.0000   1.0000
     1.0000   1.0000   1.0000   1.0000   1.0000

          k = 0.0000 0.2199 0.0000 ( 14819 PWs)   bands (ev):

   -66.6725 -40.8640 -40.7675 -40.6603 -19.6433 -18.6006 -11.2086  -9.5291
    -9.1499  -8.1400  -8.0367  -7.0796  -6.4049

     occupation numbers 
     1.0000   1.0000   1.0000   1.0000   1.0000   1.0000   1.0000   1.0000
     1.0000   1.0000   1.0000   1.0000   1.0000

          k = 0.0000 0.2749 0.0000 ( 14799 PWs)   bands (ev):

   -66.6660 -40.8513 -40.8300 -40.6746 -19.3740 -18.4920 -11.0926  -9.7784
    -9.5400  -8.3982  -7.7764  -7.2439  -6.6667

     occupation numbers 
     1.0000   1.0000   1.0000   1.0000   1.0000   1.0000   1.0000   1.0000
     1.0000   1.0000   1.0000   1.0000   1.0000

          k = 0.0000 0.3299 0.0000 ( 14811 PWs)   bands (ev):

   -66.6594 -40.8934 -40.8383 -40.6893 -19.0793 -18.3744 -11.1474  -9.9184
    -9.8831  -8.6358  -7.5092  -7.4361  -6.8958

     occupation numbers 
     1.0000   1.0000   1.0000   1.0000   1.0000   1.0000   1.0000   1.0000
     1.0000   1.0000   1.0000   1.0000   1.0000

          k = 0.0000 0.3849 0.0000 ( 14770 PWs)   bands (ev):

   -66.6532 -40.9519 -40.8261 -40.7029 -18.7819 -18.2578 -11.3473 -10.2662
    -9.9114  -8.8386  -7.6087  -7.2636  -6.9888

     occupation numbers 
     1.0000   1.0000   1.0000   1.0000   1.0000   1.0000   1.0000   1.0000
     1.0000   1.0000   1.0000   1.0000   1.0000

          k = 0.0000 0.4399 0.0000 ( 14726 PWs)   bands (ev):

   -66.6480 -41.0007 -40.8158 -40.7143 -18.5110 -18.1540 -11.5835 -10.5589
    -9.9697  -8.9973  -7.7404  -7.0655  -6.9163

     occupation numbers 
     1.0000   1.0000   1.0000   1.0000   1.0000   1.0000   1.0000   1.0000
     1.0000   1.0000   1.0000   1.0000   1.0000

          k = 0.0000 0.4949 0.0000 ( 14720 PWs)   bands (ev):

   -66.6442 -41.0357 -40.8084 -40.7225 -18.3007 -18.0755 -11.7800 -10.7716
   -10.0554  -9.1061  -7.8261  -6.9307  -6.7578

     occupation numbers 
     1.0000   1.0000   1.0000   1.0000   1.0000   1.0000   1.0000   1.0000
     1.0000   1.0000   1.0000   1.0000   1.0000

          k = 0.0000 0.5499 0.0000 ( 14732 PWs)   bands (ev):

   -66.6422 -41.0539 -40.8045 -40.7268 -18.1845 -18.0330 -11.8910 -10.8837
   -10.1158  -9.1613  -7.8677  -6.8638  -6.6363

     occupation numbers 
     1.0000   1.0000   1.0000   1.0000   1.0000   1.0000   1.0000   1.0000
     1.0000   1.0000   1.0000   1.0000   1.0000

          k = 0.0476 0.0825 0.0000 ( 14879 PWs)   bands (ev):

   -66.6838 -40.8860 -40.6575 -40.6355 -20.0756 -18.7763 -11.6096  -8.8230
    -8.4779  -8.2732  -7.6182  -7.1056  -6.0710

     occupation numbers 
     1.0000   1.0000   1.0000   1.0000   1.0000   1.0000   1.0000   1.0000
     1.0000   1.0000   1.0000   1.0000   1.0000

          k = 0.0476 0.1375 0.0000 ( 14866 PWs)   bands (ev):

   -66.6801 -40.8788 -40.6935 -40.6442 -19.9372 -18.7200 -11.4625  -9.0875
    -8.6053  -8.3369  -7.8489  -6.9736  -6.1521

     occupation numbers 
     1.0000   1.0000   1.0000   1.0000   1.0000   1.0000   1.0000   1.0000
     1.0000   1.0000   1.0000   1.0000   1.0000

          k = 0.0476 0.1925 0.0000 ( 14822 PWs)   bands (ev):

   -66.6749 -40.8687 -40.7431 -40.6563 -19.7385 -18.6391 -11.2769  -9.4016
    -8.9646  -8.1411  -8.1278  -6.9596  -6.3113

     occupation numbers 
     1.0000   1.0000   1.0000   1.0000   1.0000   1.0000   1.0000   1.0000
     1.0000   1.0000   1.0000   1.0000   1.0000

          k = 0.0476 0.2474 0.0000 ( 14793 PWs)   bands (ev):

   -66.6688 -40.8567 -40.8016 -40.6706 -19.4903 -18.5385 -11.1157  -9.6853
    -9.3410  -8.4061  -7.9116  -7.0678  -6.5460

     occupation numbers 
     1.0000   1.0000   1.0000   1.0000   1.0000   1.0000   1.0000   1.0000
     1.0000   1.0000   1.0000   1.0000   1.0000

          k = 0.0476 0.3024 0.0000 ( 14818 PWs)   bands (ev):

   -66.6622 -40.8637 -40.8438 -40.6860 -19.2076 -18.4248 -11.0824  -9.8476
    -9.7258  -8.6507  -7.6816  -7.2495  -6.7853

     occupation numbers 
     1.0000   1.0000   1.0000   1.0000   1.0000   1.0000   1.0000   1.0000
     1.0000   1.0000   1.0000   1.0000   1.0000

          k = 0.0476 0.3574 0.0000 ( 14790 PWs)   bands (ev):

   -66.6558 -40.9238 -40.8312 -40.7009 -18.9105 -18.3068 -11.2223 -10.0991
    -9.8847  -8.8478  -7.4965  -7.4476  -6.9053

     occupation numbers 
     1.0000   1.0000   1.0000   1.0000   1.0000   1.0000   1.0000   1.0000
     1.0000   1.0000   1.0000   1.0000   1.0000

          k = 0.0476 0.4124 0.0000 ( 14761 PWs)   bands (ev):

   -66.6501 -40.9768 -40.8200 -40.7142 -18.6246 -18.1954 -11.4468 -10.4327
    -9.9168  -8.9959  -7.6230  -7.3633  -6.8469

     occupation numbers 
     1.0000   1.0000   1.0000   1.0000   1.0000   1.0000   1.0000   1.0000
     1.0000   1.0000   1.0000   1.0000   1.0000

          k = 0.0476 0.4674 0.0000 ( 14735 PWs)   bands (ev):

   -66.6456 -41.0181 -40.8111 -40.7245 -18.3816 -18.1030 -11.6631 -10.6970
    -9.9956  -9.0982  -7.7555  -7.2349  -6.6990

     occupation numbers 
     1.0000   1.0000   1.0000   1.0000   1.0000   1.0000   1.0000   1.0000
     1.0000   1.0000   1.0000   1.0000   1.0000

          k = 0.0476 0.5224 0.0000 ( 14722 PWs)   bands (ev):

   -66.6427 -41.0443 -40.8055 -40.7312 -18.2162 -18.0414 -11.8159 -10.8669
   -10.0774  -9.1582  -7.8367  -7.1341  -6.5573

     occupation numbers 
     1.0000   1.0000   1.0000   1.0000   1.0000   1.0000   1.0000   1.0000
     1.0000   1.0000   1.0000   1.0000   1.0000

          k = 0.0476 0.5774 0.0000 ( 14726 PWs)   bands (ev):

   -66.6417 -41.0533 -40.8035 -40.7334 -18.1572 -18.0198 -11.8710 -10.9255
   -10.1109  -9.1779  -7.8639  -7.0978  -6.4977

     occupation numbers 
     1.0000   1.0000   1.0000   1.0000   1.0000   1.0000   1.0000   1.0000
     1.0000   1.0000   1.0000   1.0000   1.0000

          k = 0.0952 0.1650 0.0000 ( 14831 PWs)   bands (ev):

   -66.6757 -40.8703 -40.7338 -40.6557 -19.7707 -18.6521 -11.3014  -9.3524
    -8.8729  -8.1814  -8.1788  -6.8806  -6.2792

     occupation numbers 
     1.0000   1.0000   1.0000   1.0000   1.0000   1.0000   1.0000   1.0000
     1.0000   1.0000   1.0000   1.0000   1.0000

          k = 0.0952 0.2199 0.0000 ( 14819 PWs)   bands (ev):

   -66.6702 -40.8595 -40.7844 -40.6708 -19.5499 -18.5622 -11.1319  -9.6207
    -9.1704  -8.5357  -8.0001  -6.8852  -6.4757

     occupation numbers 
     1.0000   1.0000   1.0000   1.0000   1.0000   1.0000   1.0000   1.0000
     1.0000   1.0000   1.0000   1.0000   1.0000

          k = 0.0952 0.2749 0.0000 ( 14797 PWs)   bands (ev):

   -66.6640 -40.8474 -40.8407 -40.6879 -19.2876 -18.4558 -11.0390  -9.8041
    -9.5225  -8.8242  -7.8378  -7.0014  -6.6932

     occupation numbers 
     1.0000   1.0000   1.0000   1.0000   1.0000   1.0000   1.0000   1.0000
     1.0000   1.0000   1.0000   1.0000   1.0000

          k = 0.0952 0.3299 0.0000 ( 14799 PWs)   bands (ev):

   -66.6577 -40.8978 -40.8349 -40.7054 -19.0010 -18.3403 -11.1049  -9.9179
    -9.8484  -9.0103  -7.7519  -7.1913  -6.8198

     occupation numbers 
     1.0000   1.0000   1.0000   1.0000   1.0000   1.0000   1.0000   1.0000
     1.0000   1.0000   1.0000   1.0000   1.0000

          k = 0.0952 0.3849 0.0000 ( 14775 PWs)   bands (ev):

   -66.6517 -40.9505 -40.8233 -40.7217 -18.7126 -18.2255 -11.2884 -10.3027
    -9.8449  -9.1167  -7.7275  -7.4055  -6.7908

     occupation numbers 
     1.0000   1.0000   1.0000   1.0000   1.0000   1.0000   1.0000   1.0000
     1.0000   1.0000   1.0000   1.0000   1.0000

          k = 0.0952 0.4399 0.0000 ( 14747 PWs)   bands (ev):

   -66.6467 -40.9945 -40.8134 -40.7354 -18.4507 -18.1230 -11.4945 -10.6298
    -9.8992  -9.1693  -7.6745  -7.6037  -6.6647

     occupation numbers 
     1.0000   1.0000   1.0000   1.0000   1.0000   1.0000   1.0000   1.0000
     1.0000   1.0000   1.0000   1.0000   1.0000

          k = 0.0952 0.4949 0.0000 ( 14735 PWs)   bands (ev):

   -66.6431 -41.0260 -40.8064 -40.7452 -18.2482 -18.0453 -11.6628 -10.8663
    -9.9949  -9.1883  -7.7557  -7.5952  -6.5116

     occupation numbers 
     1.0000   1.0000   1.0000   1.0000   1.0000   1.0000   1.0000   1.0000
     1.0000   1.0000   1.0000   1.0000   1.0000

          k = 0.0952 0.5499 0.0000 ( 14720 PWs)   bands (ev):

   -66.6412 -41.0424 -40.8026 -40.7503 -18.1367 -18.0031 -11.7570 -10.9903
   -10.0641  -9.1918  -7.8388  -7.5431  -6.4020

     occupation numbers 
     1.0000   1.0000   1.0000   1.0000   1.0000   1.0000   1.0000   1.0000
     1.0000   1.0000   1.0000   1.0000   1.0000

          k = 0.1429 0.2474 0.0000 ( 14805 PWs)   bands (ev):

   -66.6647 -40.8486 -40.8318 -40.6896 -19.3148 -18.4663 -11.0237  -9.7845
    -9.4008  -8.9478  -7.8980  -6.8903  -6.6594

     occupation numbers 
     1.0000   1.0000   1.0000   1.0000   1.0000   1.0000   1.0000   1.0000
     1.0000   1.0000   1.0000   1.0000   1.0000

          k = 0.1429 0.3024 0.0000 ( 14800 PWs)   bands (ev):

   -66.6587 -40.8813 -40.8368 -40.7106 -19.0477 -18.3573 -11.0324  -9.8216
    -9.7551  -9.1899  -7.9067  -7.0034  -6.7761

     occupation numbers 
     1.0000   1.0000   1.0000   1.0000   1.0000   1.0000   1.0000   1.0000
     1.0000   1.0000   1.0000   1.0000   1.0000

          k = 0.1429 0.3574 0.0000 ( 14795 PWs)   bands (ev):

   -66.6528 -40.9288 -40.8253 -40.7316 -18.7681 -18.2437 -11.1573 -10.1797
    -9.7745  -9.2734  -8.0161  -7.1970  -6.7703

     occupation numbers 
     1.0000   1.0000   1.0000   1.0000   1.0000   1.0000   1.0000   1.0000
     1.0000   1.0000   1.0000   1.0000   1.0000

          k = 0.1429 0.4124 0.0000 ( 14779 PWs)   bands (ev):

   -66.6476 -40.9704 -40.8151 -40.7505 -18.5009 -18.1359 -11.3225 -10.5675
    -9.7751  -9.2803  -8.1012  -7.4242  -6.6731

     occupation numbers 
     1.0000   1.0000   1.0000   1.0000   1.0000   1.0000   1.0000   1.0000
     1.0000   1.0000   1.0000   1.0000   1.0000

          k = 0.1429 0.4674 0.0000 ( 14755 PWs)   bands (ev):

   -66.6435 -41.0028 -40.8070 -40.7654 -18.2756 -18.0459 -11.4702 -10.8710
    -9.8669  -9.2465  -8.1033  -7.6387  -6.5237

     occupation numbers 
     1.0000   1.0000   1.0000   1.0000   1.0000   1.0000   1.0000   1.0000
     1.0000   1.0000   1.0000   1.0000   1.0000

          k = 0.1429 0.5224 0.0000 ( 14748 PWs)   bands (ev):

   -66.6409 -41.0233 -40.8019 -40.7749 -18.1234 -17.9858 -11.5698 -11.0638
    -9.9753  -9.2026  -8.0732  -7.7964  -6.3747

     occupation numbers 
     1.0000   1.0000   1.0000   1.0000   1.0000   1.0000   1.0000   1.0000
     1.0000   1.0000   1.0000   1.0000   1.0000

          k = 0.1429 0.5774 0.0000 ( 14726 PWs)   bands (ev):

   -66.6400 -41.0304 -40.8001 -40.7782 -18.0693 -17.9646 -11.6049 -11.1300
   -10.0208  -9.1822  -8.0589  -7.8555  -6.3095

     occupation numbers 
     1.0000   1.0000   1.0000   1.0000   1.0000   1.0000   1.0000   1.0000
     1.0000   1.0000   1.0000   1.0000   1.0000

          k = 0.1905 0.3299 0.0000 ( 14785 PWs)   bands (ev):

   -66.6532 -40.9200 -40.8261 -40.7363 -18.7871 -18.2498 -11.1056 -10.1211
    -9.7427  -9.3495  -8.1293  -7.1111  -6.7661

     occupation numbers 
     1.0000   1.0000   1.0000   1.0000   1.0000   1.0000   1.0000   1.0000
     1.0000   1.0000   1.0000   1.0000   1.0000

          k = 0.1905 0.3849 0.0000 ( 14761 PWs)   bands (ev):

   -66.6480 -40.9541 -40.8160 -40.7622 -18.5272 -18.1421 -11.2109 -10.5254
    -9.6649  -9.3617  -8.3911  -7.3030  -6.6884

     occupation numbers 
     1.0000   1.0000   1.0000   1.0000   1.0000   1.0000   1.0000   1.0000
     1.0000   1.0000   1.0000   1.0000   1.0000

          k = 0.1905 0.4399 0.0000 ( 14749 PWs)   bands (ev):

   -66.6437 -40.9814 -40.8075 -40.7850 -18.2941 -18.0453 -11.3024 -10.8746
    -9.6995  -9.3022  -8.5584  -7.5327  -6.5521

     occupation numbers 
     1.0000   1.0000   1.0000   1.0000   1.0000   1.0000   1.0000   1.0000
     1.0000   1.0000   1.0000   1.0000   1.0000

          k = 0.1905 0.4949 0.0000 ( 14738 PWs)   bands (ev):

   -66.6406 -41.0005 -40.8020 -40.8014 -18.1160 -17.9713 -11.3596 -11.1268
    -9.8369  -9.2132  -8.6065  -7.7464  -6.3802

     occupation numbers 
     1.0000   1.0000   1.0000   1.0000   1.0000   1.0000   1.0000   1.0000
     1.0000   1.0000   1.0000   1.0000   1.0000

          k = 0.1905 0.5499 0.0000 ( 14758 PWs)   bands (ev):

   -66.6390 -41.0102 -40.8111 -40.7982 -18.0190 -17.9310 -11.3834 -11.2587
    -9.9504  -9.1435  -8.6086  -7.8820  -6.2492

     occupation numbers 
     1.0000   1.0000   1.0000   1.0000   1.0000   1.0000   1.0000   1.0000
     1.0000   1.0000   1.0000   1.0000   1.0000

          k = 0.2381 0.4124 0.0000 ( 14762 PWs)   bands (ev):

   -66.6438 -40.9722 -40.8076 -40.7937 -18.3006 -18.0449 -11.2344 -10.8758
    -9.5895  -9.3247  -8.7772  -7.4897  -6.5655

     occupation numbers 
     1.0000   1.0000   1.0000   1.0000   1.0000   1.0000   1.0000   1.0000
     1.0000   1.0000   1.0000   1.0000   1.0000

          k = 0.2381 0.4674 0.0000 ( 14743 PWs)   bands (ev):

   -66.6404 -40.9829 -40.8218 -40.8011 -18.1129 -17.9631 -11.2124 -11.1629
    -9.6521  -9.2209  -9.0342  -7.7111  -6.3904

     occupation numbers 
     1.0000   1.0000   1.0000   1.0000   1.0000   1.0000   1.0000   1.0000
     1.0000   1.0000   1.0000   1.0000   1.0000

          k = 0.2381 0.5224 0.0000 ( 14764 PWs)   bands (ev):

   -66.6383 -40.9877 -40.8418 -40.7969 -17.9883 -17.9081 -11.3487 -11.1580
    -9.8421  -9.1066  -9.1042  -7.9046  -6.2097

     occupation numbers 
     1.0000   1.0000   1.0000   1.0000   1.0000   1.0000   1.0000   1.0000
     1.0000   1.0000   1.0000   1.0000   1.0000

          k = 0.2381 0.5774 0.0000 ( 14780 PWs)   bands (ev):

   -66.6376 -40.9888 -40.8492 -40.7955 -17.9445 -17.8886 -11.4129 -11.1254
    -9.9412  -9.1150  -9.0487  -7.9869  -6.1276

     occupation numbers 
     1.0000   1.0000   1.0000   1.0000   1.0000   1.0000   1.0000   1.0000
     1.0000   1.0000   1.0000   1.0000   1.0000

          k = 0.2857 0.4949 0.0000 ( 14734 PWs)   bands (ev):

   -66.6381 -40.9762 -40.8562 -40.7965 -17.9780 -17.8999 -11.3809 -11.0540
    -9.7309  -9.3778  -9.0881  -7.9133  -6.1951

     occupation numbers 
     1.0000   1.0000   1.0000   1.0000   1.0000   1.0000   1.0000   1.0000
     1.0000   1.0000   1.0000   1.0000   1.0000

          k = 0.2857 0.5499 0.0000 ( 14738 PWs)   bands (ev):

   -66.6369 -40.9669 -40.8799 -40.7941 -17.9058 -17.8653 -11.4974 -10.8835
    -9.9744  -9.4497  -8.9738  -8.0646  -6.0433

     occupation numbers 
     1.0000   1.0000   1.0000   1.0000   1.0000   1.0000   1.0000   1.0000
     1.0000   1.0000   1.0000   1.0000   1.0000

          k = 0.3333 0.5774 0.0000 ( 14760 PWs)   bands (ev):

   -66.6364 -40.9512 -40.9016 -40.7931 -17.8774 -17.8502 -11.5495 -10.6840
   -10.1600  -9.5337  -8.9082  -8.1401  -5.9677

     occupation numbers 
     1.0000   1.0000   1.0000   1.0000   1.0000   1.0000   1.0000   1.0000
     1.0000   1.0000   1.0000   1.0000   1.0000

     highest occupied level (ev):    -5.9677

!    total energy              =    -184.83183008 Ry
     estimated scf accuracy    <          3.0E-16 Ry

     convergence has been achieved in  36 iterations

     Forces acting on atoms (cartesian axes, Ry/au):

     atom    1 type  1   force =     0.00000000   -0.00000000    0.00000000
     atom    2 type  2   force =     0.00000000   -0.00000000   -0.00023763
     atom    3 type  2   force =    -0.00000000    0.00000000    0.00023763
     The non-local contrib.  to forces
     atom    1 type  1   force =     0.00000000    0.00000000    0.00000000
     atom    2 type  2   force =     0.00000000   -0.00000000   -0.25606913
     atom    3 type  2   force =     0.00000000    0.00000000    0.25606913
     The ionic contribution  to forces
     atom    1 type  1   force =     0.00000001    0.00000097    0.00000000
     atom    2 type  2   force =    -0.00000000   -0.00000048   46.86348366
     atom    3 type  2   force =    -0.00000000   -0.00000048  -46.86348366
     The local contribution  to forces
     atom    1 type  1   force =     0.00000000    0.00002380    0.00000000
     atom    2 type  2   force =    -0.00000001    0.00000001  -46.61184972
     atom    3 type  2   force =    -0.00000001    0.00000001   46.61184972
     The core correction contribution to forces
     atom    1 type  1   force =     0.00000000   -0.00000040   -0.00000000
     atom    2 type  2   force =     0.00000000   -0.00000000    0.00419754
     atom    3 type  2   force =     0.00000000   -0.00000000   -0.00419754
     The Hubbard contrib.    to forces
     atom    1 type  1   force =     0.00000000    0.00000000    0.00000000
     atom    2 type  2   force =     0.00000000    0.00000000    0.00000000
     atom    3 type  2   force =     0.00000000    0.00000000    0.00000000
     The SCF correction term to forces
     atom    1 type  1   force =     0.00000000   -0.00000000    0.00000000
     atom    2 type  2   force =    -0.00000000    0.00000000    0.00000002
     atom    3 type  2   force =    -0.00000000    0.00000000   -0.00000002

     Total force =     0.000336     Total SCF correction =     0.000000

     Entering Dynamics:    iteration =     3

     <vel(dt)|acc(dt)> =   1.00000000

ATOMIC_POSITIONS (crystal)
Mo               0.3333333000        0.6666666000        0.5000000000    0   0   0
S                0.6666666670        0.3333333330        0.5735616982    0   0   1
S                0.6666666670        0.3333333330        0.4264383018    0   0   1



     Writing config-only to output data dir ./tmp/MoS2.save/ :
     XML data file
     NEW-OLD atomic charge density approx. for the potential

     negative rho (up, down):  8.814E-08 0.000E+00

     total cpu time spent up to now is      195.9 secs

     per-process dynamical memory:    64.5 Mb

     Self-consistent Calculation

     iteration #  1     ecut=    80.00 Ry     beta= 0.20
     Davidson diagonalization with overlap

---- Real-time Memory Report at c_bands before calling an iterative solver
            85 MiB given to the printing process from OS
            63 MiB allocation reported by mallinfo(arena+hblkhd)
        244297 MiB available memory on the node where the printing process lives
------------------
     ethr =  1.00E-06,  avg # of iterations =  2.0

     Threshold (ethr) on eigenvalues was too large:
     Diagonalizing with lowered threshold

     Davidson diagonalization with overlap

---- Real-time Memory Report at c_bands before calling an iterative solver
            85 MiB given to the printing process from OS
            63 MiB allocation reported by mallinfo(arena+hblkhd)
        244297 MiB available memory on the node where the printing process lives
------------------
     ethr =  4.79E-09,  avg # of iterations =  5.0

     negative rho (up, down):  6.807E-08 0.000E+00

     total cpu time spent up to now is      198.4 secs

     total energy              =    -184.83182997 Ry
     estimated scf accuracy    <       0.00000009 Ry

     iteration #  2     ecut=    80.00 Ry     beta= 0.20
     Davidson diagonalization with overlap

---- Real-time Memory Report at c_bands before calling an iterative solver
            85 MiB given to the printing process from OS
            63 MiB allocation reported by mallinfo(arena+hblkhd)
        244297 MiB available memory on the node where the printing process lives
------------------
     ethr =  3.49E-10,  avg # of iterations =  4.9

     negative rho (up, down):  4.461E-08 0.000E+00

     total cpu time spent up to now is      199.7 secs

     total energy              =    -184.83182997 Ry
     estimated scf accuracy    <       0.00000008 Ry

     iteration #  3     ecut=    80.00 Ry     beta= 0.20
     Davidson diagonalization with overlap

---- Real-time Memory Report at c_bands before calling an iterative solver
            85 MiB given to the printing process from OS
            63 MiB allocation reported by mallinfo(arena+hblkhd)
        244295 MiB available memory on the node where the printing process lives
------------------
     ethr =  2.89E-10,  avg # of iterations =  3.2

     negative rho (up, down):  1.230E-08 0.000E+00

     total cpu time spent up to now is      200.9 secs

     total energy              =    -184.83182998 Ry
     estimated scf accuracy    <       0.00000002 Ry

     iteration #  4     ecut=    80.00 Ry     beta= 0.20
     Davidson diagonalization with overlap

---- Real-time Memory Report at c_bands before calling an iterative solver
            85 MiB given to the printing process from OS
            63 MiB allocation reported by mallinfo(arena+hblkhd)
        244295 MiB available memory on the node where the printing process lives
------------------
     ethr =  7.92E-11,  avg # of iterations =  5.8

     negative rho (up, down):  1.233E-08 0.000E+00

     total cpu time spent up to now is      202.6 secs

     total energy              =    -184.83183000 Ry
     estimated scf accuracy    <       0.00000018 Ry

     iteration #  5     ecut=    80.00 Ry     beta= 0.20
     Davidson diagonalization with overlap

---- Real-time Memory Report at c_bands before calling an iterative solver
            85 MiB given to the printing process from OS
            63 MiB allocation reported by mallinfo(arena+hblkhd)
        244295 MiB available memory on the node where the printing process lives
------------------
     ethr =  7.92E-11,  avg # of iterations =  1.0

     negative rho (up, down):  1.235E-08 0.000E+00

     total cpu time spent up to now is      203.5 secs

     total energy              =    -184.83183001 Ry
     estimated scf accuracy    <       0.00000018 Ry

     iteration #  6     ecut=    80.00 Ry     beta= 0.20
     Davidson diagonalization with overlap

---- Real-time Memory Report at c_bands before calling an iterative solver
            85 MiB given to the printing process from OS
            63 MiB allocation reported by mallinfo(arena+hblkhd)
        244295 MiB available memory on the node where the printing process lives
------------------
     ethr =  7.92E-11,  avg # of iterations =  1.0

     total cpu time spent up to now is      204.4 secs

     total energy              =    -184.83182992 Ry
     estimated scf accuracy    <       0.00000019 Ry

     iteration #  7     ecut=    80.00 Ry     beta= 0.20
     Davidson diagonalization with overlap

---- Real-time Memory Report at c_bands before calling an iterative solver
            85 MiB given to the printing process from OS
            63 MiB allocation reported by mallinfo(arena+hblkhd)
        244295 MiB available memory on the node where the printing process lives
------------------
     ethr =  7.92E-11,  avg # of iterations =  7.2

     total cpu time spent up to now is      206.4 secs

     total energy              =    -184.83182998 Ry
     estimated scf accuracy    <       0.00000007 Ry

     iteration #  8     ecut=    80.00 Ry     beta= 0.20
     Davidson diagonalization with overlap

---- Real-time Memory Report at c_bands before calling an iterative solver
            85 MiB given to the printing process from OS
            63 MiB allocation reported by mallinfo(arena+hblkhd)
        244295 MiB available memory on the node where the printing process lives
------------------
     ethr =  7.92E-11,  avg # of iterations =  1.0

     total cpu time spent up to now is      207.3 secs

     total energy              =    -184.83182995 Ry
     estimated scf accuracy    <       0.00000006 Ry

     iteration #  9     ecut=    80.00 Ry     beta= 0.20
     Davidson diagonalization with overlap

---- Real-time Memory Report at c_bands before calling an iterative solver
            85 MiB given to the printing process from OS
            63 MiB allocation reported by mallinfo(arena+hblkhd)
        244295 MiB available memory on the node where the printing process lives
------------------
     ethr =  7.92E-11,  avg # of iterations =  6.2

     total cpu time spent up to now is      209.1 secs

     total energy              =    -184.83182997 Ry
     estimated scf accuracy    <       0.00000007 Ry

     iteration # 10     ecut=    80.00 Ry     beta= 0.20
     Davidson diagonalization with overlap

---- Real-time Memory Report at c_bands before calling an iterative solver
            85 MiB given to the printing process from OS
            63 MiB allocation reported by mallinfo(arena+hblkhd)
        244302 MiB available memory on the node where the printing process lives
------------------
     ethr =  7.92E-11,  avg # of iterations =  2.5

     total cpu time spent up to now is      210.1 secs

     total energy              =    -184.83182997 Ry
     estimated scf accuracy    <       0.00000003 Ry

     iteration # 11     ecut=    80.00 Ry     beta= 0.20
     Davidson diagonalization with overlap

---- Real-time Memory Report at c_bands before calling an iterative solver
            85 MiB given to the printing process from OS
            63 MiB allocation reported by mallinfo(arena+hblkhd)
        244302 MiB available memory on the node where the printing process lives
------------------
     ethr =  7.92E-11,  avg # of iterations =  2.8

     total cpu time spent up to now is      211.2 secs

     total energy              =    -184.83182997 Ry
     estimated scf accuracy    <          8.8E-09 Ry

     iteration # 12     ecut=    80.00 Ry     beta= 0.20
     Davidson diagonalization with overlap

---- Real-time Memory Report at c_bands before calling an iterative solver
            85 MiB given to the printing process from OS
            63 MiB allocation reported by mallinfo(arena+hblkhd)
        244302 MiB available memory on the node where the printing process lives
------------------
     ethr =  3.38E-11,  avg # of iterations =  4.0

     total cpu time spent up to now is      212.4 secs

     total energy              =    -184.83182997 Ry
     estimated scf accuracy    <          3.9E-10 Ry

     iteration # 13     ecut=    80.00 Ry     beta= 0.20
     Davidson diagonalization with overlap

---- Real-time Memory Report at c_bands before calling an iterative solver
            85 MiB given to the printing process from OS
            63 MiB allocation reported by mallinfo(arena+hblkhd)
        244301 MiB available memory on the node where the printing process lives
------------------
     ethr =  1.49E-12,  avg # of iterations =  6.9

     total cpu time spent up to now is      214.4 secs

     total energy              =    -184.83182998 Ry
     estimated scf accuracy    <          3.0E-09 Ry

     iteration # 14     ecut=    80.00 Ry     beta= 0.20
     Davidson diagonalization with overlap

---- Real-time Memory Report at c_bands before calling an iterative solver
            85 MiB given to the printing process from OS
            63 MiB allocation reported by mallinfo(arena+hblkhd)
        244301 MiB available memory on the node where the printing process lives
------------------
     ethr =  1.49E-12,  avg # of iterations =  1.0

     total cpu time spent up to now is      215.3 secs

     total energy              =    -184.83182997 Ry
     estimated scf accuracy    <          2.9E-09 Ry

     iteration # 15     ecut=    80.00 Ry     beta= 0.20
     Davidson diagonalization with overlap

---- Real-time Memory Report at c_bands before calling an iterative solver
            85 MiB given to the printing process from OS
            63 MiB allocation reported by mallinfo(arena+hblkhd)
        244301 MiB available memory on the node where the printing process lives
------------------
     ethr =  1.49E-12,  avg # of iterations =  4.5

     total cpu time spent up to now is      216.7 secs

     total energy              =    -184.83182997 Ry
     estimated scf accuracy    <          3.4E-10 Ry

     iteration # 16     ecut=    80.00 Ry     beta= 0.20
     Davidson diagonalization with overlap

---- Real-time Memory Report at c_bands before calling an iterative solver
            85 MiB given to the printing process from OS
            63 MiB allocation reported by mallinfo(arena+hblkhd)
        244300 MiB available memory on the node where the printing process lives
------------------
     ethr =  1.31E-12,  avg # of iterations =  3.4

     total cpu time spent up to now is      217.9 secs

     total energy              =    -184.83182997 Ry
     estimated scf accuracy    <          1.7E-11 Ry

     iteration # 17     ecut=    80.00 Ry     beta= 0.20
     Davidson diagonalization with overlap

---- Real-time Memory Report at c_bands before calling an iterative solver
            85 MiB given to the printing process from OS
            63 MiB allocation reported by mallinfo(arena+hblkhd)
        244300 MiB available memory on the node where the printing process lives
------------------
     ethr =  1.00E-13,  avg # of iterations =  6.0

     total cpu time spent up to now is      219.7 secs

     total energy              =    -184.83182997 Ry
     estimated scf accuracy    <          5.8E-11 Ry

     iteration # 18     ecut=    80.00 Ry     beta= 0.20
     Davidson diagonalization with overlap

---- Real-time Memory Report at c_bands before calling an iterative solver
            85 MiB given to the printing process from OS
            63 MiB allocation reported by mallinfo(arena+hblkhd)
        244300 MiB available memory on the node where the printing process lives
------------------
     ethr =  1.00E-13,  avg # of iterations =  1.0

     total cpu time spent up to now is      220.6 secs

     total energy              =    -184.83182997 Ry
     estimated scf accuracy    <          5.6E-11 Ry

     iteration # 19     ecut=    80.00 Ry     beta= 0.20
     Davidson diagonalization with overlap

---- Real-time Memory Report at c_bands before calling an iterative solver
            85 MiB given to the printing process from OS
            63 MiB allocation reported by mallinfo(arena+hblkhd)
        244300 MiB available memory on the node where the printing process lives
------------------
     ethr =  1.00E-13,  avg # of iterations =  1.9

     total cpu time spent up to now is      221.6 secs

     total energy              =    -184.83182997 Ry
     estimated scf accuracy    <          2.7E-11 Ry

     iteration # 20     ecut=    80.00 Ry     beta= 0.20
     Davidson diagonalization with overlap

---- Real-time Memory Report at c_bands before calling an iterative solver
            85 MiB given to the printing process from OS
            63 MiB allocation reported by mallinfo(arena+hblkhd)
        244300 MiB available memory on the node where the printing process lives
------------------
     ethr =  1.00E-13,  avg # of iterations =  2.5

     total cpu time spent up to now is      222.7 secs

     total energy              =    -184.83182997 Ry
     estimated scf accuracy    <          7.3E-12 Ry

     iteration # 21     ecut=    80.00 Ry     beta= 0.20
     Davidson diagonalization with overlap

---- Real-time Memory Report at c_bands before calling an iterative solver
            85 MiB given to the printing process from OS
            63 MiB allocation reported by mallinfo(arena+hblkhd)
        244302 MiB available memory on the node where the printing process lives
------------------
     ethr =  1.00E-13,  avg # of iterations =  2.8

     total cpu time spent up to now is      223.7 secs

     total energy              =    -184.83182997 Ry
     estimated scf accuracy    <          1.1E-13 Ry

     iteration # 22     ecut=    80.00 Ry     beta= 0.20
     Davidson diagonalization with overlap

---- Real-time Memory Report at c_bands before calling an iterative solver
            85 MiB given to the printing process from OS
            63 MiB allocation reported by mallinfo(arena+hblkhd)
        244302 MiB available memory on the node where the printing process lives
------------------
     ethr =  1.00E-13,  avg # of iterations =  1.0

     total cpu time spent up to now is      224.6 secs

     total energy              =    -184.83182997 Ry
     estimated scf accuracy    <          5.7E-13 Ry

     iteration # 23     ecut=    80.00 Ry     beta= 0.20
     Davidson diagonalization with overlap

---- Real-time Memory Report at c_bands before calling an iterative solver
            85 MiB given to the printing process from OS
            63 MiB allocation reported by mallinfo(arena+hblkhd)
        244302 MiB available memory on the node where the printing process lives
------------------
     ethr =  1.00E-13,  avg # of iterations =  1.0

     total cpu time spent up to now is      225.5 secs

     total energy              =    -184.83182997 Ry
     estimated scf accuracy    <          1.5E-12 Ry

     iteration # 24     ecut=    80.00 Ry     beta= 0.20
     Davidson diagonalization with overlap

---- Real-time Memory Report at c_bands before calling an iterative solver
            85 MiB given to the printing process from OS
            63 MiB allocation reported by mallinfo(arena+hblkhd)
        244303 MiB available memory on the node where the printing process lives
------------------
     ethr =  1.00E-13,  avg # of iterations =  1.0

     total cpu time spent up to now is      226.4 secs

     total energy              =    -184.83182997 Ry
     estimated scf accuracy    <          1.9E-12 Ry

     iteration # 25     ecut=    80.00 Ry     beta= 0.20
     Davidson diagonalization with overlap

---- Real-time Memory Report at c_bands before calling an iterative solver
            85 MiB given to the printing process from OS
            63 MiB allocation reported by mallinfo(arena+hblkhd)
        244303 MiB available memory on the node where the printing process lives
------------------
     ethr =  1.00E-13,  avg # of iterations =  1.0

     total cpu time spent up to now is      227.4 secs

     total energy              =    -184.83182997 Ry
     estimated scf accuracy    <          3.2E-12 Ry

     iteration # 26     ecut=    80.00 Ry     beta= 0.20
     Davidson diagonalization with overlap

---- Real-time Memory Report at c_bands before calling an iterative solver
            85 MiB given to the printing process from OS
            63 MiB allocation reported by mallinfo(arena+hblkhd)
        244303 MiB available memory on the node where the printing process lives
------------------
     ethr =  1.00E-13,  avg # of iterations =  1.0

     total cpu time spent up to now is      228.3 secs

     total energy              =    -184.83182997 Ry
     estimated scf accuracy    <          7.4E-13 Ry

     iteration # 27     ecut=    80.00 Ry     beta= 0.20
     Davidson diagonalization with overlap

---- Real-time Memory Report at c_bands before calling an iterative solver
            85 MiB given to the printing process from OS
            63 MiB allocation reported by mallinfo(arena+hblkhd)
        244303 MiB available memory on the node where the printing process lives
------------------
     ethr =  1.00E-13,  avg # of iterations =  1.0

     total cpu time spent up to now is      229.2 secs

     total energy              =    -184.83182997 Ry
     estimated scf accuracy    <          1.4E-13 Ry

     iteration # 28     ecut=    80.00 Ry     beta= 0.20
     Davidson diagonalization with overlap

---- Real-time Memory Report at c_bands before calling an iterative solver
            85 MiB given to the printing process from OS
            63 MiB allocation reported by mallinfo(arena+hblkhd)
        244303 MiB available memory on the node where the printing process lives
------------------
     ethr =  1.00E-13,  avg # of iterations =  1.0

     total cpu time spent up to now is      230.1 secs

     total energy              =    -184.83182997 Ry
     estimated scf accuracy    <          1.6E-14 Ry

     iteration # 29     ecut=    80.00 Ry     beta= 0.20
     Davidson diagonalization with overlap

---- Real-time Memory Report at c_bands before calling an iterative solver
            85 MiB given to the printing process from OS
            63 MiB allocation reported by mallinfo(arena+hblkhd)
        244304 MiB available memory on the node where the printing process lives
------------------
     ethr =  1.00E-13,  avg # of iterations =  1.0

     total cpu time spent up to now is      231.0 secs

     total energy              =    -184.83182997 Ry
     estimated scf accuracy    <          4.7E-15 Ry

     iteration # 30     ecut=    80.00 Ry     beta= 0.20
     Davidson diagonalization with overlap

---- Real-time Memory Report at c_bands before calling an iterative solver
            85 MiB given to the printing process from OS
            63 MiB allocation reported by mallinfo(arena+hblkhd)
        244304 MiB available memory on the node where the printing process lives
------------------
     ethr =  1.00E-13,  avg # of iterations =  1.0

     total cpu time spent up to now is      232.0 secs

     total energy              =    -184.83182997 Ry
     estimated scf accuracy    <          2.3E-14 Ry

     iteration # 31     ecut=    80.00 Ry     beta= 0.20
     Davidson diagonalization with overlap

---- Real-time Memory Report at c_bands before calling an iterative solver
            85 MiB given to the printing process from OS
            63 MiB allocation reported by mallinfo(arena+hblkhd)
        244304 MiB available memory on the node where the printing process lives
------------------
     ethr =  1.00E-13,  avg # of iterations =  1.0

     total cpu time spent up to now is      232.9 secs

     total energy              =    -184.83182997 Ry
     estimated scf accuracy    <          1.3E-13 Ry

     iteration # 32     ecut=    80.00 Ry     beta= 0.20
     Davidson diagonalization with overlap

---- Real-time Memory Report at c_bands before calling an iterative solver
            85 MiB given to the printing process from OS
            63 MiB allocation reported by mallinfo(arena+hblkhd)
        244304 MiB available memory on the node where the printing process lives
------------------
     ethr =  1.00E-13,  avg # of iterations =  1.0

     total cpu time spent up to now is      233.8 secs

     total energy              =    -184.83182997 Ry
     estimated scf accuracy    <          7.3E-14 Ry

     iteration # 33     ecut=    80.00 Ry     beta= 0.20
     Davidson diagonalization with overlap

---- Real-time Memory Report at c_bands before calling an iterative solver
            85 MiB given to the printing process from OS
            63 MiB allocation reported by mallinfo(arena+hblkhd)
        244300 MiB available memory on the node where the printing process lives
------------------
     ethr =  1.00E-13,  avg # of iterations =  1.0

     total cpu time spent up to now is      234.7 secs

     total energy              =    -184.83182997 Ry
     estimated scf accuracy    <          1.6E-14 Ry

     iteration # 34     ecut=    80.00 Ry     beta= 0.20
     Davidson diagonalization with overlap

---- Real-time Memory Report at c_bands before calling an iterative solver
            85 MiB given to the printing process from OS
            63 MiB allocation reported by mallinfo(arena+hblkhd)
        244300 MiB available memory on the node where the printing process lives
------------------
     ethr =  1.00E-13,  avg # of iterations =  1.0

     total cpu time spent up to now is      235.6 secs

     total energy              =    -184.83182997 Ry
     estimated scf accuracy    <          9.1E-15 Ry

     iteration # 35     ecut=    80.00 Ry     beta= 0.20
     Davidson diagonalization with overlap

---- Real-time Memory Report at c_bands before calling an iterative solver
            85 MiB given to the printing process from OS
            63 MiB allocation reported by mallinfo(arena+hblkhd)
        244300 MiB available memory on the node where the printing process lives
------------------
     ethr =  1.00E-13,  avg # of iterations =  1.0

     total cpu time spent up to now is      236.6 secs

     total energy              =    -184.83182997 Ry
     estimated scf accuracy    <          9.6E-15 Ry

     iteration # 36     ecut=    80.00 Ry     beta= 0.20
     Davidson diagonalization with overlap

---- Real-time Memory Report at c_bands before calling an iterative solver
            85 MiB given to the printing process from OS
            63 MiB allocation reported by mallinfo(arena+hblkhd)
        244300 MiB available memory on the node where the printing process lives
------------------
     ethr =  1.00E-13,  avg # of iterations =  1.0

     total cpu time spent up to now is      237.5 secs

     total energy              =    -184.83182997 Ry
     estimated scf accuracy    <          1.3E-14 Ry

     iteration # 37     ecut=    80.00 Ry     beta= 0.20
     Davidson diagonalization with overlap

---- Real-time Memory Report at c_bands before calling an iterative solver
            85 MiB given to the printing process from OS
            63 MiB allocation reported by mallinfo(arena+hblkhd)
        244300 MiB available memory on the node where the printing process lives
------------------
     ethr =  1.00E-13,  avg # of iterations =  1.0

     total cpu time spent up to now is      238.4 secs

     total energy              =    -184.83182997 Ry
     estimated scf accuracy    <          1.1E-14 Ry

     iteration # 38     ecut=    80.00 Ry     beta= 0.20
     Davidson diagonalization with overlap

---- Real-time Memory Report at c_bands before calling an iterative solver
            85 MiB given to the printing process from OS
            63 MiB allocation reported by mallinfo(arena+hblkhd)
        244300 MiB available memory on the node where the printing process lives
------------------
     ethr =  1.00E-13,  avg # of iterations =  1.0

     total cpu time spent up to now is      239.3 secs

     total energy              =    -184.83182997 Ry
     estimated scf accuracy    <          1.2E-14 Ry

     iteration # 39     ecut=    80.00 Ry     beta= 0.20
     Davidson diagonalization with overlap

---- Real-time Memory Report at c_bands before calling an iterative solver
            85 MiB given to the printing process from OS
            63 MiB allocation reported by mallinfo(arena+hblkhd)
        244300 MiB available memory on the node where the printing process lives
------------------
     ethr =  1.00E-13,  avg # of iterations =  1.0

     total cpu time spent up to now is      240.3 secs

     total energy              =    -184.83182997 Ry
     estimated scf accuracy    <          1.1E-14 Ry

     iteration # 40     ecut=    80.00 Ry     beta= 0.20
     Davidson diagonalization with overlap

---- Real-time Memory Report at c_bands before calling an iterative solver
            85 MiB given to the printing process from OS
            63 MiB allocation reported by mallinfo(arena+hblkhd)
        244300 MiB available memory on the node where the printing process lives
------------------
     ethr =  1.00E-13,  avg # of iterations =  1.0

     total cpu time spent up to now is      241.2 secs

     total energy              =    -184.83182997 Ry
     estimated scf accuracy    <          7.8E-15 Ry

     iteration # 41     ecut=    80.00 Ry     beta= 0.20
     Davidson diagonalization with overlap

---- Real-time Memory Report at c_bands before calling an iterative solver
            85 MiB given to the printing process from OS
            63 MiB allocation reported by mallinfo(arena+hblkhd)
        244300 MiB available memory on the node where the printing process lives
------------------
     ethr =  1.00E-13,  avg # of iterations =  1.0

     total cpu time spent up to now is      242.1 secs

     total energy              =    -184.83182997 Ry
     estimated scf accuracy    <          8.6E-15 Ry

     iteration # 42     ecut=    80.00 Ry     beta= 0.20
     Davidson diagonalization with overlap

---- Real-time Memory Report at c_bands before calling an iterative solver
            85 MiB given to the printing process from OS
            63 MiB allocation reported by mallinfo(arena+hblkhd)
        244300 MiB available memory on the node where the printing process lives
------------------
     ethr =  1.00E-13,  avg # of iterations =  1.0

     total cpu time spent up to now is      243.0 secs

     total energy              =    -184.83182997 Ry
     estimated scf accuracy    <          2.2E-14 Ry

     iteration # 43     ecut=    80.00 Ry     beta= 0.20
     Davidson diagonalization with overlap

---- Real-time Memory Report at c_bands before calling an iterative solver
            85 MiB given to the printing process from OS
            63 MiB allocation reported by mallinfo(arena+hblkhd)
        244300 MiB available memory on the node where the printing process lives
------------------
     ethr =  1.00E-13,  avg # of iterations =  1.0

     total cpu time spent up to now is      243.9 secs

     total energy              =    -184.83182997 Ry
     estimated scf accuracy    <          9.9E-15 Ry

     iteration # 44     ecut=    80.00 Ry     beta= 0.20
     Davidson diagonalization with overlap

---- Real-time Memory Report at c_bands before calling an iterative solver
            85 MiB given to the printing process from OS
            63 MiB allocation reported by mallinfo(arena+hblkhd)
        244300 MiB available memory on the node where the printing process lives
------------------
     ethr =  1.00E-13,  avg # of iterations =  1.0

     total cpu time spent up to now is      244.8 secs

     End of self-consistent calculation

          k = 0.0000 0.0000 0.0000 ( 14903 PWs)   bands (ev):

   -66.6870 -40.8923 -40.6294 -40.6294 -20.1855 -18.8202 -11.7328  -8.5943
    -8.5943  -7.8005  -7.4371  -7.4371  -6.0258

     occupation numbers 
     1.0000   1.0000   1.0000   1.0000   1.0000   1.0000   1.0000   1.0000
     1.0000   1.0000   1.0000   1.0000   1.0000

          k = 0.0000 0.0550 0.0000 ( 14887 PWs)   bands (ev):

   -66.6860 -40.8903 -40.6393 -40.6317 -20.1496 -18.8056 -11.6918  -8.6760
    -8.5565  -8.0205  -7.4960  -7.2681  -6.0384

     occupation numbers 
     1.0000   1.0000   1.0000   1.0000   1.0000   1.0000   1.0000   1.0000
     1.0000   1.0000   1.0000   1.0000   1.0000

          k = 0.0000 0.1100 0.0000 ( 14865 PWs)   bands (ev):

   -66.6831 -40.8847 -40.6677 -40.6381 -20.0435 -18.7625 -11.5743  -8.8992
    -8.4457  -8.3787  -7.6574  -7.0779  -6.0874

     occupation numbers 
     1.0000   1.0000   1.0000   1.0000   1.0000   1.0000   1.0000   1.0000
     1.0000   1.0000   1.0000   1.0000   1.0000

          k = 0.0000 0.1650 0.0000 ( 14863 PWs)   bands (ev):

   -66.6786 -40.8759 -40.7121 -40.6482 -19.8727 -18.6932 -11.3998  -9.2091
    -8.7614  -8.2695  -7.8858  -7.0091  -6.2017

     occupation numbers 
     1.0000   1.0000   1.0000   1.0000   1.0000   1.0000   1.0000   1.0000
     1.0000   1.0000   1.0000   1.0000   1.0000

          k = 0.0000 0.2199 0.0000 ( 14819 PWs)   bands (ev):

   -66.6728 -40.8646 -40.7682 -40.6610 -19.6462 -18.6014 -11.2118  -9.5329
    -9.1518  -8.1439  -8.0414  -7.0792  -6.4041

     occupation numbers 
     1.0000   1.0000   1.0000   1.0000   1.0000   1.0000   1.0000   1.0000
     1.0000   1.0000   1.0000   1.0000   1.0000

          k = 0.0000 0.2749 0.0000 ( 14799 PWs)   bands (ev):

   -66.6663 -40.8519 -40.8308 -40.6753 -19.3768 -18.4929 -11.0963  -9.7815
    -9.5420  -8.4022  -7.7809  -7.2431  -6.6665

     occupation numbers 
     1.0000   1.0000   1.0000   1.0000   1.0000   1.0000   1.0000   1.0000
     1.0000   1.0000   1.0000   1.0000   1.0000

          k = 0.0000 0.3299 0.0000 ( 14811 PWs)   bands (ev):

   -66.6597 -40.8942 -40.8388 -40.6900 -19.0821 -18.3756 -11.1514  -9.9203
    -9.8854  -8.6397  -7.5133  -7.4351  -6.8961

     occupation numbers 
     1.0000   1.0000   1.0000   1.0000   1.0000   1.0000   1.0000   1.0000
     1.0000   1.0000   1.0000   1.0000   1.0000

          k = 0.0000 0.3849 0.0000 ( 14770 PWs)   bands (ev):

   -66.6535 -40.9528 -40.8266 -40.7036 -18.7848 -18.2592 -11.3510 -10.2679
    -9.9134  -8.8425  -7.6076  -7.2674  -6.9894

     occupation numbers 
     1.0000   1.0000   1.0000   1.0000   1.0000   1.0000   1.0000   1.0000
     1.0000   1.0000   1.0000   1.0000   1.0000

          k = 0.0000 0.4399 0.0000 ( 14726 PWs)   bands (ev):

   -66.6482 -41.0016 -40.8163 -40.7150 -18.5139 -18.1557 -11.5867 -10.5604
    -9.9718  -9.0013  -7.7392  -7.0689  -6.9171

     occupation numbers 
     1.0000   1.0000   1.0000   1.0000   1.0000   1.0000   1.0000   1.0000
     1.0000   1.0000   1.0000   1.0000   1.0000

          k = 0.0000 0.4949 0.0000 ( 14720 PWs)   bands (ev):

   -66.6445 -41.0366 -40.8089 -40.7233 -18.3036 -18.0773 -11.7828 -10.7729
   -10.0577  -9.1101  -7.8249  -6.9337  -6.7585

     occupation numbers 
     1.0000   1.0000   1.0000   1.0000   1.0000   1.0000   1.0000   1.0000
     1.0000   1.0000   1.0000   1.0000   1.0000

          k = 0.0000 0.5499 0.0000 ( 14732 PWs)   bands (ev):

   -66.6425 -41.0548 -40.8050 -40.7275 -18.1874 -18.0349 -11.8934 -10.8849
   -10.1182  -9.1653  -7.8666  -6.8666  -6.6369

     occupation numbers 
     1.0000   1.0000   1.0000   1.0000   1.0000   1.0000   1.0000   1.0000
     1.0000   1.0000   1.0000   1.0000   1.0000

          k = 0.0476 0.0825 0.0000 ( 14879 PWs)   bands (ev):

   -66.6841 -40.8866 -40.6582 -40.6362 -20.0786 -18.7768 -11.6124  -8.8278
    -8.4828  -8.2743  -7.6220  -7.1068  -6.0691

     occupation numbers 
     1.0000   1.0000   1.0000   1.0000   1.0000   1.0000   1.0000   1.0000
     1.0000   1.0000   1.0000   1.0000   1.0000

          k = 0.0476 0.1375 0.0000 ( 14866 PWs)   bands (ev):

   -66.6804 -40.8793 -40.6942 -40.6449 -19.9401 -18.7205 -11.4653  -9.0921
    -8.6069  -8.3417  -7.8527  -6.9742  -6.1507

     occupation numbers 
     1.0000   1.0000   1.0000   1.0000   1.0000   1.0000   1.0000   1.0000
     1.0000   1.0000   1.0000   1.0000   1.0000

          k = 0.0476 0.1925 0.0000 ( 14822 PWs)   bands (ev):

   -66.6752 -40.8693 -40.7438 -40.6570 -19.7413 -18.6398 -11.2800  -9.4058
    -8.9664  -8.1458  -8.1316  -6.9596  -6.3103

     occupation numbers 
     1.0000   1.0000   1.0000   1.0000   1.0000   1.0000   1.0000   1.0000
     1.0000   1.0000   1.0000   1.0000   1.0000

          k = 0.0476 0.2474 0.0000 ( 14793 PWs)   bands (ev):

   -66.6691 -40.8573 -40.8023 -40.6713 -19.4931 -18.5394 -11.1191  -9.6887
    -9.3430  -8.4097  -7.9161  -7.0674  -6.5456

     occupation numbers 
     1.0000   1.0000   1.0000   1.0000   1.0000   1.0000   1.0000   1.0000
     1.0000   1.0000   1.0000   1.0000   1.0000

          k = 0.0476 0.3024 0.0000 ( 14818 PWs)   bands (ev):

   -66.6625 -40.8645 -40.8444 -40.6867 -19.2104 -18.4259 -11.0862  -9.8502
    -9.7278  -8.6543  -7.6857  -7.2488  -6.7856

     occupation numbers 
     1.0000   1.0000   1.0000   1.0000   1.0000   1.0000   1.0000   1.0000
     1.0000   1.0000   1.0000   1.0000   1.0000

          k = 0.0476 0.3574 0.0000 ( 14790 PWs)   bands (ev):

   -66.6561 -40.9246 -40.8317 -40.7016 -18.9133 -18.3081 -11.2262 -10.1010
    -9.8868  -8.8514  -7.4999  -7.4467  -6.9064

     occupation numbers 
     1.0000   1.0000   1.0000   1.0000   1.0000   1.0000   1.0000   1.0000
     1.0000   1.0000   1.0000   1.0000   1.0000

          k = 0.0476 0.4124 0.0000 ( 14761 PWs)   bands (ev):

   -66.6504 -40.9776 -40.8205 -40.7149 -18.6274 -18.1970 -11.4503 -10.4344
    -9.9188  -8.9995  -7.6221  -7.3659  -6.8485

     occupation numbers 
     1.0000   1.0000   1.0000   1.0000   1.0000   1.0000   1.0000   1.0000
     1.0000   1.0000   1.0000   1.0000   1.0000

          k = 0.0476 0.4674 0.0000 ( 14735 PWs)   bands (ev):

   -66.6459 -41.0190 -40.8116 -40.7253 -18.3845 -18.1047 -11.6661 -10.6985
    -9.9978  -9.1018  -7.7545  -7.2372  -6.7007

     occupation numbers 
     1.0000   1.0000   1.0000   1.0000   1.0000   1.0000   1.0000   1.0000
     1.0000   1.0000   1.0000   1.0000   1.0000

          k = 0.0476 0.5224 0.0000 ( 14722 PWs)   bands (ev):

   -66.6430 -41.0452 -40.8060 -40.7319 -18.2191 -18.0433 -11.8185 -10.8683
   -10.0798  -9.1618  -7.8356  -7.1363  -6.5588

     occupation numbers 
     1.0000   1.0000   1.0000   1.0000   1.0000   1.0000   1.0000   1.0000
     1.0000   1.0000   1.0000   1.0000   1.0000

          k = 0.0476 0.5774 0.0000 ( 14726 PWs)   bands (ev):

   -66.6420 -41.0542 -40.8040 -40.7342 -18.1601 -18.0217 -11.8734 -10.9268
   -10.1133  -9.1816  -7.8628  -7.0998  -6.4991

     occupation numbers 
     1.0000   1.0000   1.0000   1.0000   1.0000   1.0000   1.0000   1.0000
     1.0000   1.0000   1.0000   1.0000   1.0000

          k = 0.0952 0.1650 0.0000 ( 14831 PWs)   bands (ev):

   -66.6760 -40.8709 -40.7346 -40.6564 -19.7736 -18.6528 -11.3045  -9.3566
    -8.8746  -8.1861  -8.1825  -6.8808  -6.2781

     occupation numbers 
     1.0000   1.0000   1.0000   1.0000   1.0000   1.0000   1.0000   1.0000
     1.0000   1.0000   1.0000   1.0000   1.0000

          k = 0.0952 0.2199 0.0000 ( 14819 PWs)   bands (ev):

   -66.6705 -40.8601 -40.7852 -40.6715 -19.5528 -18.5631 -11.1352  -9.6244
    -9.1723  -8.5392  -8.0045  -6.8851  -6.4752

     occupation numbers 
     1.0000   1.0000   1.0000   1.0000   1.0000   1.0000   1.0000   1.0000
     1.0000   1.0000   1.0000   1.0000   1.0000

          k = 0.0952 0.2749 0.0000 ( 14797 PWs)   bands (ev):

   -66.6643 -40.8479 -40.8416 -40.6886 -19.2904 -18.4568 -11.0427  -9.8069
    -9.5247  -8.8273  -7.8418  -7.0010  -6.6934

     occupation numbers 
     1.0000   1.0000   1.0000   1.0000   1.0000   1.0000   1.0000   1.0000
     1.0000   1.0000   1.0000   1.0000   1.0000

          k = 0.0952 0.3299 0.0000 ( 14799 PWs)   bands (ev):

   -66.6580 -40.8986 -40.8354 -40.7061 -19.0038 -18.3416 -11.1089  -9.9201
    -9.8506  -9.0132  -7.7551  -7.1908  -6.8209

     occupation numbers 
     1.0000   1.0000   1.0000   1.0000   1.0000   1.0000   1.0000   1.0000
     1.0000   1.0000   1.0000   1.0000   1.0000

          k = 0.0952 0.3849 0.0000 ( 14775 PWs)   bands (ev):

   -66.6520 -40.9514 -40.8238 -40.7224 -18.7154 -18.2270 -11.2921 -10.3048
    -9.8468  -9.1196  -7.7301  -7.4048  -6.7926

     occupation numbers 
     1.0000   1.0000   1.0000   1.0000   1.0000   1.0000   1.0000   1.0000
     1.0000   1.0000   1.0000   1.0000   1.0000

          k = 0.0952 0.4399 0.0000 ( 14747 PWs)   bands (ev):

   -66.6470 -40.9954 -40.8139 -40.7361 -18.4536 -18.1247 -11.4977 -10.6318
    -9.9012  -9.1721  -7.6767  -7.6028  -6.6666

     occupation numbers 
     1.0000   1.0000   1.0000   1.0000   1.0000   1.0000   1.0000   1.0000
     1.0000   1.0000   1.0000   1.0000   1.0000

          k = 0.0952 0.4949 0.0000 ( 14735 PWs)   bands (ev):

   -66.6434 -41.0269 -40.8069 -40.7459 -18.2511 -18.0471 -11.6655 -10.8682
    -9.9972  -9.1912  -7.7548  -7.5971  -6.5134

     occupation numbers 
     1.0000   1.0000   1.0000   1.0000   1.0000   1.0000   1.0000   1.0000
     1.0000   1.0000   1.0000   1.0000   1.0000

          k = 0.0952 0.5499 0.0000 ( 14720 PWs)   bands (ev):

   -66.6415 -41.0434 -40.8031 -40.7511 -18.1396 -18.0051 -11.7594 -10.9921
   -10.0666  -9.1948  -7.8377  -7.5449  -6.4036

     occupation numbers 
     1.0000   1.0000   1.0000   1.0000   1.0000   1.0000   1.0000   1.0000
     1.0000   1.0000   1.0000   1.0000   1.0000

          k = 0.1429 0.2474 0.0000 ( 14805 PWs)   bands (ev):

   -66.6649 -40.8491 -40.8326 -40.6903 -19.3176 -18.4673 -11.0275  -9.7875
    -9.4030  -8.9507  -7.9020  -6.8900  -6.6596

     occupation numbers 
     1.0000   1.0000   1.0000   1.0000   1.0000   1.0000   1.0000   1.0000
     1.0000   1.0000   1.0000   1.0000   1.0000

          k = 0.1429 0.3024 0.0000 ( 14800 PWs)   bands (ev):

   -66.6590 -40.8821 -40.8374 -40.7113 -19.0505 -18.3585 -11.0364  -9.8239
    -9.7578  -9.1922  -7.9098  -7.0029  -6.7772

     occupation numbers 
     1.0000   1.0000   1.0000   1.0000   1.0000   1.0000   1.0000   1.0000
     1.0000   1.0000   1.0000   1.0000   1.0000

          k = 0.1429 0.3574 0.0000 ( 14795 PWs)   bands (ev):

   -66.6531 -40.9296 -40.8259 -40.7323 -18.7709 -18.2451 -11.1612 -10.1825
    -9.7764  -9.2755  -8.0186  -7.1964  -6.7721

     occupation numbers 
     1.0000   1.0000   1.0000   1.0000   1.0000   1.0000   1.0000   1.0000
     1.0000   1.0000   1.0000   1.0000   1.0000

          k = 0.1429 0.4124 0.0000 ( 14779 PWs)   bands (ev):

   -66.6479 -40.9713 -40.8156 -40.7512 -18.5037 -18.1375 -11.3260 -10.5701
    -9.7770  -9.2823  -8.1033  -7.4234  -6.6750

     occupation numbers 
     1.0000   1.0000   1.0000   1.0000   1.0000   1.0000   1.0000   1.0000
     1.0000   1.0000   1.0000   1.0000   1.0000

          k = 0.1429 0.4674 0.0000 ( 14755 PWs)   bands (ev):

   -66.6438 -41.0037 -40.8075 -40.7662 -18.2785 -18.0478 -11.4731 -10.8735
    -9.8690  -9.2485  -8.1053  -7.6379  -6.5256

     occupation numbers 
     1.0000   1.0000   1.0000   1.0000   1.0000   1.0000   1.0000   1.0000
     1.0000   1.0000   1.0000   1.0000   1.0000

          k = 0.1429 0.5224 0.0000 ( 14748 PWs)   bands (ev):

   -66.6411 -41.0242 -40.8024 -40.7757 -18.1263 -17.9877 -11.5723 -11.0663
    -9.9777  -9.2047  -8.0750  -7.7954  -6.3765

     occupation numbers 
     1.0000   1.0000   1.0000   1.0000   1.0000   1.0000   1.0000   1.0000
     1.0000   1.0000   1.0000   1.0000   1.0000

          k = 0.1429 0.5774 0.0000 ( 14726 PWs)   bands (ev):

   -66.6402 -41.0313 -40.8006 -40.7790 -18.0723 -17.9666 -11.6072 -11.1324
   -10.0234  -9.1843  -8.0606  -7.8545  -6.3112

     occupation numbers 
     1.0000   1.0000   1.0000   1.0000   1.0000   1.0000   1.0000   1.0000
     1.0000   1.0000   1.0000   1.0000   1.0000

          k = 0.1905 0.3299 0.0000 ( 14785 PWs)   bands (ev):

   -66.6534 -40.9208 -40.8266 -40.7371 -18.7899 -18.2512 -11.1095 -10.1242
    -9.7447  -9.3512  -8.1317  -7.1105  -6.7679

     occupation numbers 
     1.0000   1.0000   1.0000   1.0000   1.0000   1.0000   1.0000   1.0000
     1.0000   1.0000   1.0000   1.0000   1.0000

          k = 0.1905 0.3849 0.0000 ( 14761 PWs)   bands (ev):

   -66.6483 -40.9549 -40.8165 -40.7629 -18.5301 -18.1437 -11.2144 -10.5285
    -9.6667  -9.3632  -8.3933  -7.3023  -6.6904

     occupation numbers 
     1.0000   1.0000   1.0000   1.0000   1.0000   1.0000   1.0000   1.0000
     1.0000   1.0000   1.0000   1.0000   1.0000

          k = 0.1905 0.4399 0.0000 ( 14749 PWs)   bands (ev):

   -66.6440 -40.9823 -40.8080 -40.7858 -18.2969 -18.0471 -11.3055 -10.8777
    -9.7015  -9.3035  -8.5605  -7.5319  -6.5541

     occupation numbers 
     1.0000   1.0000   1.0000   1.0000   1.0000   1.0000   1.0000   1.0000
     1.0000   1.0000   1.0000   1.0000   1.0000

          k = 0.1905 0.4949 0.0000 ( 14738 PWs)   bands (ev):

   -66.6409 -41.0014 -40.8028 -40.8019 -18.1189 -17.9733 -11.3623 -11.1298
    -9.8391  -9.2145  -8.6084  -7.7455  -6.3821

     occupation numbers 
     1.0000   1.0000   1.0000   1.0000   1.0000   1.0000   1.0000   1.0000
     1.0000   1.0000   1.0000   1.0000   1.0000

          k = 0.1905 0.5499 0.0000 ( 14758 PWs)   bands (ev):

   -66.6392 -41.0111 -40.8118 -40.7987 -18.0220 -17.9331 -11.3857 -11.2617
    -9.9529  -9.1448  -8.6103  -7.8810  -6.2510

     occupation numbers 
     1.0000   1.0000   1.0000   1.0000   1.0000   1.0000   1.0000   1.0000
     1.0000   1.0000   1.0000   1.0000   1.0000

          k = 0.2381 0.4124 0.0000 ( 14762 PWs)   bands (ev):

   -66.6441 -40.9730 -40.8081 -40.7944 -18.3034 -18.0467 -11.2376 -10.8790
    -9.5913  -9.3258  -8.7793  -7.4890  -6.5675

     occupation numbers 
     1.0000   1.0000   1.0000   1.0000   1.0000   1.0000   1.0000   1.0000
     1.0000   1.0000   1.0000   1.0000   1.0000

          k = 0.2381 0.4674 0.0000 ( 14743 PWs)   bands (ev):

   -66.6407 -40.9838 -40.8226 -40.8016 -18.1158 -17.9650 -11.2151 -11.1661
    -9.6541  -9.2217  -9.0362  -7.7103  -6.3923

     occupation numbers 
     1.0000   1.0000   1.0000   1.0000   1.0000   1.0000   1.0000   1.0000
     1.0000   1.0000   1.0000   1.0000   1.0000

          k = 0.2381 0.5224 0.0000 ( 14764 PWs)   bands (ev):

   -66.6386 -40.9886 -40.8426 -40.7974 -17.9912 -17.9101 -11.3520 -11.1603
    -9.8444  -9.1084  -9.1050  -7.9038  -6.2115

     occupation numbers 
     1.0000   1.0000   1.0000   1.0000   1.0000   1.0000   1.0000   1.0000
     1.0000   1.0000   1.0000   1.0000   1.0000

          k = 0.2381 0.5774 0.0000 ( 14780 PWs)   bands (ev):

   -66.6379 -40.9897 -40.8499 -40.7960 -17.9475 -17.8907 -11.4162 -11.1276
    -9.9437  -9.1168  -9.0495  -7.9859  -6.1293

     occupation numbers 
     1.0000   1.0000   1.0000   1.0000   1.0000   1.0000   1.0000   1.0000
     1.0000   1.0000   1.0000   1.0000   1.0000

          k = 0.2857 0.4949 0.0000 ( 14734 PWs)   bands (ev):

   -66.6384 -40.9771 -40.8569 -40.7970 -17.9809 -17.9019 -11.3843 -11.0564
    -9.7329  -9.3798  -9.0886  -7.9125  -6.1968

     occupation numbers 
     1.0000   1.0000   1.0000   1.0000   1.0000   1.0000   1.0000   1.0000
     1.0000   1.0000   1.0000   1.0000   1.0000

          k = 0.2857 0.5499 0.0000 ( 14738 PWs)   bands (ev):

   -66.6371 -40.9678 -40.8807 -40.7946 -17.9088 -17.8674 -11.5008 -10.8856
    -9.9767  -9.4517  -8.9742  -8.0637  -6.0448

     occupation numbers 
     1.0000   1.0000   1.0000   1.0000   1.0000   1.0000   1.0000   1.0000
     1.0000   1.0000   1.0000   1.0000   1.0000

          k = 0.3333 0.5774 0.0000 ( 14760 PWs)   bands (ev):

   -66.6366 -40.9521 -40.9024 -40.7936 -17.8803 -17.8523 -11.5530 -10.6859
   -10.1624  -9.5358  -8.9086  -8.1392  -5.9692

     occupation numbers 
     1.0000   1.0000   1.0000   1.0000   1.0000   1.0000   1.0000   1.0000
     1.0000   1.0000   1.0000   1.0000   1.0000

     highest occupied level (ev):    -5.9692

!    total energy              =    -184.83182997 Ry
     estimated scf accuracy    <          1.0E-16 Ry

     convergence has been achieved in  44 iterations

     Forces acting on atoms (cartesian axes, Ry/au):

     atom    1 type  1   force =     0.00000000   -0.00000000    0.00000000
     atom    2 type  2   force =     0.00000000    0.00000000    0.00031361
     atom    3 type  2   force =     0.00000000    0.00000000   -0.00031361
     The non-local contrib.  to forces
     atom    1 type  1   force =     0.00000000    0.00000000    0.00000000
     atom    2 type  2   force =     0.00000000   -0.00000000   -0.25572939
     atom    3 type  2   force =     0.00000000   -0.00000000    0.25572939
     The ionic contribution  to forces
     atom    1 type  1   force =     0.00000001    0.00000097    0.00000000
     atom    2 type  2   force =    -0.00000000   -0.00000048   46.85981538
     atom    3 type  2   force =    -0.00000000   -0.00000048  -46.85981538
     The local contribution  to forces
     atom    1 type  1   force =     0.00000000    0.00002380    0.00000000
     atom    2 type  2   force =    -0.00000001    0.00000001  -46.60794621
     atom    3 type  2   force =    -0.00000001    0.00000001   46.60794621
     The core correction contribution to forces
     atom    1 type  1   force =     0.00000000   -0.00000040   -0.00000000
     atom    2 type  2   force =     0.00000000   -0.00000000    0.00417384
     atom    3 type  2   force =     0.00000000   -0.00000000   -0.00417384
     The Hubbard contrib.    to forces
     atom    1 type  1   force =     0.00000000    0.00000000    0.00000000
     atom    2 type  2   force =     0.00000000    0.00000000    0.00000000
     atom    3 type  2   force =     0.00000000    0.00000000    0.00000000
     The SCF correction term to forces
     atom    1 type  1   force =     0.00000000    0.00000000   -0.00000000
     atom    2 type  2   force =     0.00000000    0.00000000   -0.00000001
     atom    3 type  2   force =     0.00000000    0.00000000    0.00000001

     Total force =     0.000444     Total SCF correction =     0.000000

     Entering Dynamics:    iteration =     4

     <vel(dt)|acc(dt)> =  -1.00000000

ATOMIC_POSITIONS (crystal)
Mo               0.3333333000        0.6666666000        0.5000000000    0   0   0
S                0.6666666670        0.3333333330        0.5735702944    0   0   1
S                0.6666666670        0.3333333330        0.4264297056    0   0   1



     Writing config-only to output data dir ./tmp/MoS2.save/ :
     XML data file
     NEW-OLD atomic charge density approx. for the potential

     negative rho (up, down):  1.674E-08 0.000E+00

     total cpu time spent up to now is      245.0 secs

     per-process dynamical memory:    64.5 Mb

     Self-consistent Calculation

     iteration #  1     ecut=    80.00 Ry     beta= 0.20
     Davidson diagonalization with overlap

---- Real-time Memory Report at c_bands before calling an iterative solver
            85 MiB given to the printing process from OS
            63 MiB allocation reported by mallinfo(arena+hblkhd)
        244300 MiB available memory on the node where the printing process lives
------------------
     ethr =  1.00E-06,  avg # of iterations =  1.0

     Threshold (ethr) on eigenvalues was too large:
     Diagonalizing with lowered threshold

     Davidson diagonalization with overlap

---- Real-time Memory Report at c_bands before calling an iterative solver
            85 MiB given to the printing process from OS
            63 MiB allocation reported by mallinfo(arena+hblkhd)
        244300 MiB available memory on the node where the printing process lives
------------------
     ethr =  6.24E-10,  avg # of iterations =  4.9

     negative rho (up, down):  1.255E-08 0.000E+00

     total cpu time spent up to now is      247.4 secs

     total energy              =    -184.83183014 Ry
     estimated scf accuracy    <          4.7E-09 Ry

     iteration #  2     ecut=    80.00 Ry     beta= 0.20
     Davidson diagonalization with overlap

---- Real-time Memory Report at c_bands before calling an iterative solver
            85 MiB given to the printing process from OS
            63 MiB allocation reported by mallinfo(arena+hblkhd)
        244300 MiB available memory on the node where the printing process lives
------------------
     ethr =  1.79E-11,  avg # of iterations =  6.2

     negative rho (up, down):  1.210E-08 0.000E+00

     total cpu time spent up to now is      248.9 secs

     total energy              =    -184.83183014 Ry
     estimated scf accuracy    <          8.0E-09 Ry

     iteration #  3     ecut=    80.00 Ry     beta= 0.20
     Davidson diagonalization with overlap

---- Real-time Memory Report at c_bands before calling an iterative solver
            85 MiB given to the printing process from OS
            63 MiB allocation reported by mallinfo(arena+hblkhd)
        244300 MiB available memory on the node where the printing process lives
------------------
     ethr =  1.79E-11,  avg # of iterations =  1.0

     total cpu time spent up to now is      249.9 secs

     total energy              =    -184.83183014 Ry
     estimated scf accuracy    <          7.2E-09 Ry

     iteration #  4     ecut=    80.00 Ry     beta= 0.20
     Davidson diagonalization with overlap

---- Real-time Memory Report at c_bands before calling an iterative solver
            85 MiB given to the printing process from OS
            63 MiB allocation reported by mallinfo(arena+hblkhd)
        244300 MiB available memory on the node where the printing process lives
------------------
     ethr =  1.79E-11,  avg # of iterations =  6.4

     total cpu time spent up to now is      251.7 secs

     total energy              =    -184.83183015 Ry
     estimated scf accuracy    <       0.00000004 Ry

     iteration #  5     ecut=    80.00 Ry     beta= 0.20
     Davidson diagonalization with overlap

---- Real-time Memory Report at c_bands before calling an iterative solver
            85 MiB given to the printing process from OS
            63 MiB allocation reported by mallinfo(arena+hblkhd)
        244300 MiB available memory on the node where the printing process lives
------------------
     ethr =  1.79E-11,  avg # of iterations =  1.9

     total cpu time spent up to now is      252.7 secs

     total energy              =    -184.83183014 Ry
     estimated scf accuracy    <       0.00000003 Ry

     iteration #  6     ecut=    80.00 Ry     beta= 0.20
     Davidson diagonalization with overlap

---- Real-time Memory Report at c_bands before calling an iterative solver
            85 MiB given to the printing process from OS
            63 MiB allocation reported by mallinfo(arena+hblkhd)
        244300 MiB available memory on the node where the printing process lives
------------------
     ethr =  1.79E-11,  avg # of iterations =  5.8

     total cpu time spent up to now is      254.4 secs

     total energy              =    -184.83183014 Ry
     estimated scf accuracy    <          7.5E-10 Ry

     iteration #  7     ecut=    80.00 Ry     beta= 0.20
     Davidson diagonalization with overlap

---- Real-time Memory Report at c_bands before calling an iterative solver
            85 MiB given to the printing process from OS
            63 MiB allocation reported by mallinfo(arena+hblkhd)
        244300 MiB available memory on the node where the printing process lives
------------------
     ethr =  2.90E-12,  avg # of iterations =  3.2

     total cpu time spent up to now is      255.5 secs

     total energy              =    -184.83183014 Ry
     estimated scf accuracy    <          7.3E-10 Ry

     iteration #  8     ecut=    80.00 Ry     beta= 0.20
     Davidson diagonalization with overlap

---- Real-time Memory Report at c_bands before calling an iterative solver
            85 MiB given to the printing process from OS
            63 MiB allocation reported by mallinfo(arena+hblkhd)
        244300 MiB available memory on the node where the printing process lives
------------------
     ethr =  2.82E-12,  avg # of iterations =  4.0

     total cpu time spent up to now is      256.8 secs

     total energy              =    -184.83183014 Ry
     estimated scf accuracy    <          2.4E-11 Ry

     iteration #  9     ecut=    80.00 Ry     beta= 0.20
     Davidson diagonalization with overlap

---- Real-time Memory Report at c_bands before calling an iterative solver
            85 MiB given to the printing process from OS
            63 MiB allocation reported by mallinfo(arena+hblkhd)
        244300 MiB available memory on the node where the printing process lives
------------------
     ethr =  1.00E-13,  avg # of iterations =  5.1

     total cpu time spent up to now is      258.3 secs

     total energy              =    -184.83183014 Ry
     estimated scf accuracy    <          1.0E-10 Ry

     iteration # 10     ecut=    80.00 Ry     beta= 0.20
     Davidson diagonalization with overlap

---- Real-time Memory Report at c_bands before calling an iterative solver
            85 MiB given to the printing process from OS
            63 MiB allocation reported by mallinfo(arena+hblkhd)
        244300 MiB available memory on the node where the printing process lives
------------------
     ethr =  1.00E-13,  avg # of iterations =  5.1

     total cpu time spent up to now is      259.8 secs

     total energy              =    -184.83183014 Ry
     estimated scf accuracy    <          2.8E-12 Ry

     iteration # 11     ecut=    80.00 Ry     beta= 0.20
     Davidson diagonalization with overlap

---- Real-time Memory Report at c_bands before calling an iterative solver
            87 MiB given to the printing process from OS
            63 MiB allocation reported by mallinfo(arena+hblkhd)
        244300 MiB available memory on the node where the printing process lives
------------------
     ethr =  1.00E-13,  avg # of iterations =  1.0

     total cpu time spent up to now is      260.8 secs

     total energy              =    -184.83183014 Ry
     estimated scf accuracy    <          3.8E-12 Ry

     iteration # 12     ecut=    80.00 Ry     beta= 0.20
     Davidson diagonalization with overlap

---- Real-time Memory Report at c_bands before calling an iterative solver
            87 MiB given to the printing process from OS
            63 MiB allocation reported by mallinfo(arena+hblkhd)
        244300 MiB available memory on the node where the printing process lives
------------------
     ethr =  1.00E-13,  avg # of iterations =  1.2

     total cpu time spent up to now is      261.7 secs

     total energy              =    -184.83183014 Ry
     estimated scf accuracy    <          5.4E-13 Ry

     iteration # 13     ecut=    80.00 Ry     beta= 0.20
     Davidson diagonalization with overlap

---- Real-time Memory Report at c_bands before calling an iterative solver
            87 MiB given to the printing process from OS
            63 MiB allocation reported by mallinfo(arena+hblkhd)
        244300 MiB available memory on the node where the printing process lives
------------------
     ethr =  1.00E-13,  avg # of iterations =  1.0

     total cpu time spent up to now is      262.6 secs

     total energy              =    -184.83183014 Ry
     estimated scf accuracy    <          1.4E-13 Ry

     iteration # 14     ecut=    80.00 Ry     beta= 0.20
     Davidson diagonalization with overlap

---- Real-time Memory Report at c_bands before calling an iterative solver
            87 MiB given to the printing process from OS
            63 MiB allocation reported by mallinfo(arena+hblkhd)
        244303 MiB available memory on the node where the printing process lives
------------------
     ethr =  1.00E-13,  avg # of iterations =  1.0

     total cpu time spent up to now is      263.5 secs

     total energy              =    -184.83183014 Ry
     estimated scf accuracy    <          4.2E-14 Ry

     iteration # 15     ecut=    80.00 Ry     beta= 0.20
     Davidson diagonalization with overlap

---- Real-time Memory Report at c_bands before calling an iterative solver
            87 MiB given to the printing process from OS
            63 MiB allocation reported by mallinfo(arena+hblkhd)
        244303 MiB available memory on the node where the printing process lives
------------------
     ethr =  1.00E-13,  avg # of iterations =  1.0

     total cpu time spent up to now is      264.4 secs

     total energy              =    -184.83183014 Ry
     estimated scf accuracy    <          7.0E-14 Ry

     iteration # 16     ecut=    80.00 Ry     beta= 0.20
     Davidson diagonalization with overlap

---- Real-time Memory Report at c_bands before calling an iterative solver
            87 MiB given to the printing process from OS
            63 MiB allocation reported by mallinfo(arena+hblkhd)
        244303 MiB available memory on the node where the printing process lives
------------------
     ethr =  1.00E-13,  avg # of iterations =  1.0

     total cpu time spent up to now is      265.3 secs

     total energy              =    -184.83183014 Ry
     estimated scf accuracy    <          1.7E-14 Ry

     iteration # 17     ecut=    80.00 Ry     beta= 0.20
     Davidson diagonalization with overlap

---- Real-time Memory Report at c_bands before calling an iterative solver
            87 MiB given to the printing process from OS
            63 MiB allocation reported by mallinfo(arena+hblkhd)
        244303 MiB available memory on the node where the printing process lives
------------------
     ethr =  1.00E-13,  avg # of iterations =  1.0

     total cpu time spent up to now is      266.2 secs

     End of self-consistent calculation

          k = 0.0000 0.0000 0.0000 ( 14903 PWs)   bands (ev):

   -66.6869 -40.8921 -40.6293 -40.6293 -20.1848 -18.8202 -11.7322  -8.5930
    -8.5930  -7.8008  -7.4361  -7.4361  -6.0263

     occupation numbers 
     1.0000   1.0000   1.0000   1.0000   1.0000   1.0000   1.0000   1.0000
     1.0000   1.0000   1.0000   1.0000   1.0000

          k = 0.0000 0.0550 0.0000 ( 14887 PWs)   bands (ev):

   -66.6859 -40.8902 -40.6391 -40.6315 -20.1488 -18.8055 -11.6911  -8.6747
    -8.5552  -8.0204  -7.4950  -7.2676  -6.0389

     occupation numbers 
     1.0000   1.0000   1.0000   1.0000   1.0000   1.0000   1.0000   1.0000
     1.0000   1.0000   1.0000   1.0000   1.0000

          k = 0.0000 0.1100 0.0000 ( 14865 PWs)   bands (ev):

   -66.6830 -40.8846 -40.6676 -40.6379 -20.0428 -18.7624 -11.5736  -8.8981
    -8.4444  -8.3784  -7.6565  -7.0776  -6.0878

     occupation numbers 
     1.0000   1.0000   1.0000   1.0000   1.0000   1.0000   1.0000   1.0000
     1.0000   1.0000   1.0000   1.0000   1.0000

          k = 0.0000 0.1650 0.0000 ( 14863 PWs)   bands (ev):

   -66.6785 -40.8757 -40.7120 -40.6480 -19.8720 -18.6930 -11.3991  -9.2080
    -8.7610  -8.2683  -7.8848  -7.0090  -6.2020

     occupation numbers 
     1.0000   1.0000   1.0000   1.0000   1.0000   1.0000   1.0000   1.0000
     1.0000   1.0000   1.0000   1.0000   1.0000

          k = 0.0000 0.2199 0.0000 ( 14819 PWs)   bands (ev):

   -66.6728 -40.8645 -40.7680 -40.6608 -19.6455 -18.6012 -11.2110  -9.5320
    -9.1514  -8.1429  -8.0402  -7.0793  -6.4043

     occupation numbers 
     1.0000   1.0000   1.0000   1.0000   1.0000   1.0000   1.0000   1.0000
     1.0000   1.0000   1.0000   1.0000   1.0000

          k = 0.0000 0.2749 0.0000 ( 14799 PWs)   bands (ev):

   -66.6663 -40.8517 -40.8306 -40.6752 -19.3761 -18.4927 -11.0953  -9.7807
    -9.5415  -8.4012  -7.7798  -7.2433  -6.6665

     occupation numbers 
     1.0000   1.0000   1.0000   1.0000   1.0000   1.0000   1.0000   1.0000
     1.0000   1.0000   1.0000   1.0000   1.0000

          k = 0.0000 0.3299 0.0000 ( 14811 PWs)   bands (ev):

   -66.6596 -40.8940 -40.8387 -40.6898 -19.0814 -18.3753 -11.1504  -9.9198
    -9.8848  -8.6387  -7.5123  -7.4353  -6.8960

     occupation numbers 
     1.0000   1.0000   1.0000   1.0000   1.0000   1.0000   1.0000   1.0000
     1.0000   1.0000   1.0000   1.0000   1.0000

          k = 0.0000 0.3849 0.0000 ( 14770 PWs)   bands (ev):

   -66.6534 -40.9526 -40.8265 -40.7034 -18.7841 -18.2589 -11.3501 -10.2674
    -9.9129  -8.8416  -7.6079  -7.2665  -6.9893

     occupation numbers 
     1.0000   1.0000   1.0000   1.0000   1.0000   1.0000   1.0000   1.0000
     1.0000   1.0000   1.0000   1.0000   1.0000

          k = 0.0000 0.4399 0.0000 ( 14726 PWs)   bands (ev):

   -66.6482 -41.0014 -40.8162 -40.7149 -18.5132 -18.1553 -11.5859 -10.5600
    -9.9713  -9.0003  -7.7395  -7.0680  -6.9169

     occupation numbers 
     1.0000   1.0000   1.0000   1.0000   1.0000   1.0000   1.0000   1.0000
     1.0000   1.0000   1.0000   1.0000   1.0000

          k = 0.0000 0.4949 0.0000 ( 14720 PWs)   bands (ev):

   -66.6444 -41.0364 -40.8088 -40.7231 -18.3029 -18.0769 -11.7821 -10.7726
   -10.0572  -9.1091  -7.8252  -6.9330  -6.7583

     occupation numbers 
     1.0000   1.0000   1.0000   1.0000   1.0000   1.0000   1.0000   1.0000
     1.0000   1.0000   1.0000   1.0000   1.0000

          k = 0.0000 0.5499 0.0000 ( 14732 PWs)   bands (ev):

   -66.6424 -41.0546 -40.8049 -40.7274 -18.1867 -18.0344 -11.8928 -10.8846
   -10.1176  -9.1643  -7.8669  -6.8659  -6.6368

     occupation numbers 
     1.0000   1.0000   1.0000   1.0000   1.0000   1.0000   1.0000   1.0000
     1.0000   1.0000   1.0000   1.0000   1.0000

          k = 0.0476 0.0825 0.0000 ( 14879 PWs)   bands (ev):

   -66.6840 -40.8864 -40.6581 -40.6360 -20.0778 -18.7767 -11.6117  -8.8266
    -8.4816  -8.2740  -7.6211  -7.1065  -6.0696

     occupation numbers 
     1.0000   1.0000   1.0000   1.0000   1.0000   1.0000   1.0000   1.0000
     1.0000   1.0000   1.0000   1.0000   1.0000

          k = 0.0476 0.1375 0.0000 ( 14866 PWs)   bands (ev):

   -66.6803 -40.8792 -40.6940 -40.6447 -19.9394 -18.7204 -11.4646  -9.0909
    -8.6065  -8.3405  -7.8517  -6.9740  -6.1510

     occupation numbers 
     1.0000   1.0000   1.0000   1.0000   1.0000   1.0000   1.0000   1.0000
     1.0000   1.0000   1.0000   1.0000   1.0000

          k = 0.0476 0.1925 0.0000 ( 14822 PWs)   bands (ev):

   -66.6751 -40.8691 -40.7436 -40.6568 -19.7406 -18.6396 -11.2792  -9.4047
    -8.9660  -8.1446  -8.1306  -6.9596  -6.3105

     occupation numbers 
     1.0000   1.0000   1.0000   1.0000   1.0000   1.0000   1.0000   1.0000
     1.0000   1.0000   1.0000   1.0000   1.0000

          k = 0.0476 0.2474 0.0000 ( 14793 PWs)   bands (ev):

   -66.6690 -40.8571 -40.8021 -40.6712 -19.4924 -18.5391 -11.1183  -9.6879
    -9.3425  -8.4088  -7.9150  -7.0675  -6.5457

     occupation numbers 
     1.0000   1.0000   1.0000   1.0000   1.0000   1.0000   1.0000   1.0000
     1.0000   1.0000   1.0000   1.0000   1.0000

          k = 0.0476 0.3024 0.0000 ( 14818 PWs)   bands (ev):

   -66.6624 -40.8643 -40.8442 -40.6865 -19.2097 -18.4256 -11.0853  -9.8495
    -9.7273  -8.6534  -7.6847  -7.2490  -6.7855

     occupation numbers 
     1.0000   1.0000   1.0000   1.0000   1.0000   1.0000   1.0000   1.0000
     1.0000   1.0000   1.0000   1.0000   1.0000

          k = 0.0476 0.3574 0.0000 ( 14790 PWs)   bands (ev):

   -66.6560 -40.9244 -40.8316 -40.7015 -18.9126 -18.3078 -11.2252 -10.1006
    -9.8862  -8.8505  -7.4991  -7.4469  -6.9061

     occupation numbers 
     1.0000   1.0000   1.0000   1.0000   1.0000   1.0000   1.0000   1.0000
     1.0000   1.0000   1.0000   1.0000   1.0000

          k = 0.0476 0.4124 0.0000 ( 14761 PWs)   bands (ev):

   -66.6503 -40.9774 -40.8204 -40.7147 -18.6267 -18.1966 -11.4494 -10.4340
    -9.9183  -8.9986  -7.6223  -7.3653  -6.8481

     occupation numbers 
     1.0000   1.0000   1.0000   1.0000   1.0000   1.0000   1.0000   1.0000
     1.0000   1.0000   1.0000   1.0000   1.0000

          k = 0.0476 0.4674 0.0000 ( 14735 PWs)   bands (ev):

   -66.6458 -41.0187 -40.8115 -40.7251 -18.3838 -18.1043 -11.6653 -10.6981
    -9.9972  -9.1009  -7.7548  -7.2366  -6.7003

     occupation numbers 
     1.0000   1.0000   1.0000   1.0000   1.0000   1.0000   1.0000   1.0000
     1.0000   1.0000   1.0000   1.0000   1.0000

          k = 0.0476 0.5224 0.0000 ( 14722 PWs)   bands (ev):

   -66.6429 -41.0450 -40.8059 -40.7317 -18.2184 -18.0428 -11.8178 -10.8679
   -10.0792  -9.1609  -7.8359  -7.1357  -6.5584

     occupation numbers 
     1.0000   1.0000   1.0000   1.0000   1.0000   1.0000   1.0000   1.0000
     1.0000   1.0000   1.0000   1.0000   1.0000

          k = 0.0476 0.5774 0.0000 ( 14726 PWs)   bands (ev):

   -66.6419 -41.0540 -40.8039 -40.7340 -18.1594 -18.0212 -11.8728 -10.9265
   -10.1127  -9.1807  -7.8630  -7.0993  -6.4987

     occupation numbers 
     1.0000   1.0000   1.0000   1.0000   1.0000   1.0000   1.0000   1.0000
     1.0000   1.0000   1.0000   1.0000   1.0000

          k = 0.0952 0.1650 0.0000 ( 14831 PWs)   bands (ev):

   -66.6760 -40.8707 -40.7344 -40.6562 -19.7729 -18.6526 -11.3037  -9.3555
    -8.8742  -8.1849  -8.1816  -6.8807  -6.2784

     occupation numbers 
     1.0000   1.0000   1.0000   1.0000   1.0000   1.0000   1.0000   1.0000
     1.0000   1.0000   1.0000   1.0000   1.0000

          k = 0.0952 0.2199 0.0000 ( 14819 PWs)   bands (ev):

   -66.6705 -40.8599 -40.7850 -40.6713 -19.5521 -18.5629 -11.1344  -9.6235
    -9.1719  -8.5383  -8.0034  -6.8851  -6.4754

     occupation numbers 
     1.0000   1.0000   1.0000   1.0000   1.0000   1.0000   1.0000   1.0000
     1.0000   1.0000   1.0000   1.0000   1.0000

          k = 0.0952 0.2749 0.0000 ( 14797 PWs)   bands (ev):

   -66.6643 -40.8478 -40.8414 -40.6884 -19.2897 -18.4566 -11.0418  -9.8062
    -9.5242  -8.8265  -7.8408  -7.0011  -6.6934

     occupation numbers 
     1.0000   1.0000   1.0000   1.0000   1.0000   1.0000   1.0000   1.0000
     1.0000   1.0000   1.0000   1.0000   1.0000

          k = 0.0952 0.3299 0.0000 ( 14799 PWs)   bands (ev):

   -66.6579 -40.8984 -40.8353 -40.7059 -19.0031 -18.3413 -11.1079  -9.9195
    -9.8500  -9.0125  -7.7543  -7.1909  -6.8206

     occupation numbers 
     1.0000   1.0000   1.0000   1.0000   1.0000   1.0000   1.0000   1.0000
     1.0000   1.0000   1.0000   1.0000   1.0000

          k = 0.0952 0.3849 0.0000 ( 14775 PWs)   bands (ev):

   -66.6520 -40.9512 -40.8236 -40.7222 -18.7147 -18.2266 -11.2912 -10.3043
    -9.8464  -9.1189  -7.7294  -7.4050  -6.7921

     occupation numbers 
     1.0000   1.0000   1.0000   1.0000   1.0000   1.0000   1.0000   1.0000
     1.0000   1.0000   1.0000   1.0000   1.0000

          k = 0.0952 0.4399 0.0000 ( 14747 PWs)   bands (ev):

   -66.6470 -40.9952 -40.8138 -40.7359 -18.4529 -18.1243 -11.4969 -10.6313
    -9.9007  -9.1714  -7.6762  -7.6030  -6.6661

     occupation numbers 
     1.0000   1.0000   1.0000   1.0000   1.0000   1.0000   1.0000   1.0000
     1.0000   1.0000   1.0000   1.0000   1.0000

          k = 0.0952 0.4949 0.0000 ( 14735 PWs)   bands (ev):

   -66.6433 -41.0267 -40.8067 -40.7458 -18.2504 -18.0467 -11.6649 -10.8677
    -9.9967  -9.1905  -7.7550  -7.5966  -6.5130

     occupation numbers 
     1.0000   1.0000   1.0000   1.0000   1.0000   1.0000   1.0000   1.0000
     1.0000   1.0000   1.0000   1.0000   1.0000

          k = 0.0952 0.5499 0.0000 ( 14720 PWs)   bands (ev):

   -66.6415 -41.0431 -40.8030 -40.7509 -18.1389 -18.0046 -11.7588 -10.9917
   -10.0659  -9.1940  -7.8380  -7.5445  -6.4032

     occupation numbers 
     1.0000   1.0000   1.0000   1.0000   1.0000   1.0000   1.0000   1.0000
     1.0000   1.0000   1.0000   1.0000   1.0000

          k = 0.1429 0.2474 0.0000 ( 14805 PWs)   bands (ev):

   -66.6649 -40.8490 -40.8324 -40.6901 -19.3169 -18.4670 -11.0265  -9.7868
    -9.4025  -8.9500  -7.9010  -6.8901  -6.6596

     occupation numbers 
     1.0000   1.0000   1.0000   1.0000   1.0000   1.0000   1.0000   1.0000
     1.0000   1.0000   1.0000   1.0000   1.0000

          k = 0.1429 0.3024 0.0000 ( 14800 PWs)   bands (ev):

   -66.6589 -40.8819 -40.8372 -40.7111 -19.0498 -18.3582 -11.0354  -9.8233
    -9.7571  -9.1916  -7.9090  -7.0031  -6.7769

     occupation numbers 
     1.0000   1.0000   1.0000   1.0000   1.0000   1.0000   1.0000   1.0000
     1.0000   1.0000   1.0000   1.0000   1.0000

          k = 0.1429 0.3574 0.0000 ( 14795 PWs)   bands (ev):

   -66.6530 -40.9294 -40.8257 -40.7321 -18.7702 -18.2448 -11.1602 -10.1818
    -9.7760  -9.2749  -8.0180  -7.1966  -6.7716

     occupation numbers 
     1.0000   1.0000   1.0000   1.0000   1.0000   1.0000   1.0000   1.0000
     1.0000   1.0000   1.0000   1.0000   1.0000

          k = 0.1429 0.4124 0.0000 ( 14779 PWs)   bands (ev):

   -66.6478 -40.9711 -40.8155 -40.7510 -18.5030 -18.1371 -11.3251 -10.5694
    -9.7766  -9.2818  -8.1028  -7.4236  -6.6745

     occupation numbers 
     1.0000   1.0000   1.0000   1.0000   1.0000   1.0000   1.0000   1.0000
     1.0000   1.0000   1.0000   1.0000   1.0000

          k = 0.1429 0.4674 0.0000 ( 14755 PWs)   bands (ev):

   -66.6437 -41.0035 -40.8074 -40.7660 -18.2778 -18.0473 -11.4724 -10.8729
    -9.8685  -9.2480  -8.1048  -7.6381  -6.5251

     occupation numbers 
     1.0000   1.0000   1.0000   1.0000   1.0000   1.0000   1.0000   1.0000
     1.0000   1.0000   1.0000   1.0000   1.0000

          k = 0.1429 0.5224 0.0000 ( 14748 PWs)   bands (ev):

   -66.6411 -41.0240 -40.8023 -40.7755 -18.1256 -17.9872 -11.5717 -11.0657
    -9.9771  -9.2042  -8.0745  -7.7956  -6.3761

     occupation numbers 
     1.0000   1.0000   1.0000   1.0000   1.0000   1.0000   1.0000   1.0000
     1.0000   1.0000   1.0000   1.0000   1.0000

          k = 0.1429 0.5774 0.0000 ( 14726 PWs)   bands (ev):

   -66.6402 -41.0310 -40.8005 -40.7788 -18.0715 -17.9661 -11.6066 -11.1318
   -10.0227  -9.1838  -8.0602  -7.8547  -6.3108

     occupation numbers 
     1.0000   1.0000   1.0000   1.0000   1.0000   1.0000   1.0000   1.0000
     1.0000   1.0000   1.0000   1.0000   1.0000

          k = 0.1905 0.3299 0.0000 ( 14785 PWs)   bands (ev):

   -66.6534 -40.9206 -40.8264 -40.7369 -18.7892 -18.2508 -11.1085 -10.1234
    -9.7442  -9.3507  -8.1311  -7.1107  -6.7674

     occupation numbers 
     1.0000   1.0000   1.0000   1.0000   1.0000   1.0000   1.0000   1.0000
     1.0000   1.0000   1.0000   1.0000   1.0000

          k = 0.1905 0.3849 0.0000 ( 14761 PWs)   bands (ev):

   -66.6482 -40.9547 -40.8163 -40.7627 -18.5293 -18.1433 -11.2135 -10.5277
    -9.6662  -9.3628  -8.3927  -7.3025  -6.6899

     occupation numbers 
     1.0000   1.0000   1.0000   1.0000   1.0000   1.0000   1.0000   1.0000
     1.0000   1.0000   1.0000   1.0000   1.0000

          k = 0.1905 0.4399 0.0000 ( 14749 PWs)   bands (ev):

   -66.6439 -40.9821 -40.8079 -40.7856 -18.2962 -18.0466 -11.3047 -10.8769
    -9.7010  -9.3032  -8.5600  -7.5321  -6.5536

     occupation numbers 
     1.0000   1.0000   1.0000   1.0000   1.0000   1.0000   1.0000   1.0000
     1.0000   1.0000   1.0000   1.0000   1.0000

          k = 0.1905 0.4949 0.0000 ( 14738 PWs)   bands (ev):

   -66.6408 -41.0011 -40.8026 -40.8017 -18.1182 -17.9728 -11.3616 -11.1291
    -9.8386  -9.2142  -8.6079  -7.7457  -6.3816

     occupation numbers 
     1.0000   1.0000   1.0000   1.0000   1.0000   1.0000   1.0000   1.0000
     1.0000   1.0000   1.0000   1.0000   1.0000

          k = 0.1905 0.5499 0.0000 ( 14758 PWs)   bands (ev):

   -66.6392 -41.0109 -40.8116 -40.7985 -18.0212 -17.9326 -11.3851 -11.2609
    -9.9523  -9.1445  -8.6099  -7.8813  -6.2505

     occupation numbers 
     1.0000   1.0000   1.0000   1.0000   1.0000   1.0000   1.0000   1.0000
     1.0000   1.0000   1.0000   1.0000   1.0000

          k = 0.2381 0.4124 0.0000 ( 14762 PWs)   bands (ev):

   -66.6440 -40.9728 -40.8080 -40.7942 -18.3027 -18.0462 -11.2368 -10.8782
    -9.5909  -9.3255  -8.7788  -7.4892  -6.5670

     occupation numbers 
     1.0000   1.0000   1.0000   1.0000   1.0000   1.0000   1.0000   1.0000
     1.0000   1.0000   1.0000   1.0000   1.0000

          k = 0.2381 0.4674 0.0000 ( 14743 PWs)   bands (ev):

   -66.6406 -40.9836 -40.8224 -40.8015 -18.1151 -17.9645 -11.2144 -11.1653
    -9.6536  -9.2215  -9.0357  -7.7105  -6.3918

     occupation numbers 
     1.0000   1.0000   1.0000   1.0000   1.0000   1.0000   1.0000   1.0000
     1.0000   1.0000   1.0000   1.0000   1.0000

          k = 0.2381 0.5224 0.0000 ( 14764 PWs)   bands (ev):

   -66.6385 -40.9884 -40.8424 -40.7973 -17.9905 -17.9096 -11.3512 -11.1598
    -9.8438  -9.1080  -9.1048  -7.9040  -6.2110

     occupation numbers 
     1.0000   1.0000   1.0000   1.0000   1.0000   1.0000   1.0000   1.0000
     1.0000   1.0000   1.0000   1.0000   1.0000

          k = 0.2381 0.5774 0.0000 ( 14780 PWs)   bands (ev):

   -66.6378 -40.9895 -40.8498 -40.7958 -17.9467 -17.8902 -11.4153 -11.1270
    -9.9430  -9.1163  -9.0493  -7.9862  -6.1288

     occupation numbers 
     1.0000   1.0000   1.0000   1.0000   1.0000   1.0000   1.0000   1.0000
     1.0000   1.0000   1.0000   1.0000   1.0000

          k = 0.2857 0.4949 0.0000 ( 14734 PWs)   bands (ev):

   -66.6383 -40.9769 -40.8567 -40.7968 -17.9802 -17.9014 -11.3834 -11.0558
    -9.7324  -9.3793  -9.0885  -7.9127  -6.1964

     occupation numbers 
     1.0000   1.0000   1.0000   1.0000   1.0000   1.0000   1.0000   1.0000
     1.0000   1.0000   1.0000   1.0000   1.0000

          k = 0.2857 0.5499 0.0000 ( 14738 PWs)   bands (ev):

   -66.6371 -40.9675 -40.8805 -40.7944 -17.9081 -17.8669 -11.5000 -10.8850
    -9.9761  -9.4512  -8.9741  -8.0639  -6.0445

     occupation numbers 
     1.0000   1.0000   1.0000   1.0000   1.0000   1.0000   1.0000   1.0000
     1.0000   1.0000   1.0000   1.0000   1.0000

          k = 0.3333 0.5774 0.0000 ( 14760 PWs)   bands (ev):

   -66.6366 -40.9519 -40.9022 -40.7935 -17.8796 -17.8517 -11.5521 -10.6854
   -10.1618  -9.5353  -8.9085  -8.1394  -5.9688

     occupation numbers 
     1.0000   1.0000   1.0000   1.0000   1.0000   1.0000   1.0000   1.0000
     1.0000   1.0000   1.0000   1.0000   1.0000

     highest occupied level (ev):    -5.9688

!    total energy              =    -184.83183014 Ry
     estimated scf accuracy    <          4.1E-16 Ry

     convergence has been achieved in  17 iterations

     Forces acting on atoms (cartesian axes, Ry/au):

     atom    1 type  1   force =     0.00000000   -0.00000000    0.00000000
     atom    2 type  2   force =    -0.00000000    0.00000000    0.00017568
     atom    3 type  2   force =     0.00000000   -0.00000000   -0.00017568
     The non-local contrib.  to forces
     atom    1 type  1   force =     0.00000000    0.00000000    0.00000000
     atom    2 type  2   force =     0.00000000    0.00000000   -0.25581441
     atom    3 type  2   force =     0.00000000    0.00000000    0.25581441
     The ionic contribution  to forces
     atom    1 type  1   force =     0.00000001    0.00000097    0.00000000
     atom    2 type  2   force =    -0.00000000   -0.00000048   46.86073331
     atom    3 type  2   force =    -0.00000000   -0.00000048  -46.86073331
     The local contribution  to forces
     atom    1 type  1   force =     0.00000000    0.00002380    0.00000000
     atom    2 type  2   force =    -0.00000001    0.00000001  -46.60892294
     atom    3 type  2   force =    -0.00000001    0.00000001   46.60892294
     The core correction contribution to forces
     atom    1 type  1   force =    -0.00000000   -0.00000040   -0.00000000
     atom    2 type  2   force =     0.00000000   -0.00000000    0.00417977
     atom    3 type  2   force =     0.00000000   -0.00000000   -0.00417977
     The Hubbard contrib.    to forces
     atom    1 type  1   force =     0.00000000    0.00000000    0.00000000
     atom    2 type  2   force =     0.00000000    0.00000000    0.00000000
     atom    3 type  2   force =     0.00000000    0.00000000    0.00000000
     The SCF correction term to forces
     atom    1 type  1   force =     0.00000000    0.00000000    0.00000000
     atom    2 type  2   force =     0.00000000   -0.00000000   -0.00000004
     atom    3 type  2   force =     0.00000000    0.00000000    0.00000004

     Total force =     0.000248     Total SCF correction =     0.000000

     Entering Dynamics:    iteration =     5

     <vel(dt)|acc(dt)> =   1.00000000

ATOMIC_POSITIONS (crystal)
Mo               0.3333333000        0.6666666000        0.5000000000    0   0   0
S                0.6666666670        0.3333333330        0.5735836961    0   0   1
S                0.6666666670        0.3333333330        0.4264163039    0   0   1



     Writing config-only to output data dir ./tmp/MoS2.save/ :
     XML data file
     NEW-OLD atomic charge density approx. for the potential

     negative rho (up, down):  2.905E-08 0.000E+00

     total cpu time spent up to now is      266.4 secs

     per-process dynamical memory:    64.5 Mb

     Self-consistent Calculation

     iteration #  1     ecut=    80.00 Ry     beta= 0.20
     Davidson diagonalization with overlap

---- Real-time Memory Report at c_bands before calling an iterative solver
            87 MiB given to the printing process from OS
            63 MiB allocation reported by mallinfo(arena+hblkhd)
        244304 MiB available memory on the node where the printing process lives
------------------
     ethr =  1.00E-06,  avg # of iterations =  1.0

     Threshold (ethr) on eigenvalues was too large:
     Diagonalizing with lowered threshold

     Davidson diagonalization with overlap

---- Real-time Memory Report at c_bands before calling an iterative solver
            87 MiB given to the printing process from OS
            63 MiB allocation reported by mallinfo(arena+hblkhd)
        244304 MiB available memory on the node where the printing process lives
------------------
     ethr =  1.52E-09,  avg # of iterations =  4.9

     negative rho (up, down):  2.209E-08 0.000E+00

     total cpu time spent up to now is      268.8 secs

     total energy              =    -184.83183021 Ry
     estimated scf accuracy    <       0.00000001 Ry

     iteration #  2     ecut=    80.00 Ry     beta= 0.20
     Davidson diagonalization with overlap

---- Real-time Memory Report at c_bands before calling an iterative solver
            87 MiB given to the printing process from OS
            63 MiB allocation reported by mallinfo(arena+hblkhd)
        244303 MiB available memory on the node where the printing process lives
------------------
     ethr =  4.36E-11,  avg # of iterations =  6.4

     negative rho (up, down):  2.133E-08 0.000E+00

     total cpu time spent up to now is      270.4 secs

     total energy              =    -184.83183022 Ry
     estimated scf accuracy    <       0.00000002 Ry

     iteration #  3     ecut=    80.00 Ry     beta= 0.20
     Davidson diagonalization with overlap

---- Real-time Memory Report at c_bands before calling an iterative solver
            87 MiB given to the printing process from OS
            63 MiB allocation reported by mallinfo(arena+hblkhd)
        244302 MiB available memory on the node where the printing process lives
------------------
     ethr =  4.36E-11,  avg # of iterations =  1.0

     total cpu time spent up to now is      271.3 secs

     total energy              =    -184.83183021 Ry
     estimated scf accuracy    <       0.00000002 Ry

     iteration #  4     ecut=    80.00 Ry     beta= 0.20
     Davidson diagonalization with overlap

---- Real-time Memory Report at c_bands before calling an iterative solver
            87 MiB given to the printing process from OS
            63 MiB allocation reported by mallinfo(arena+hblkhd)
        244302 MiB available memory on the node where the printing process lives
------------------
     ethr =  4.36E-11,  avg # of iterations =  6.4

     total cpu time spent up to now is      273.2 secs

     total energy              =    -184.83183023 Ry
     estimated scf accuracy    <       0.00000010 Ry

     iteration #  5     ecut=    80.00 Ry     beta= 0.20
     Davidson diagonalization with overlap

---- Real-time Memory Report at c_bands before calling an iterative solver
            87 MiB given to the printing process from OS
            63 MiB allocation reported by mallinfo(arena+hblkhd)
        244302 MiB available memory on the node where the printing process lives
------------------
     ethr =  4.36E-11,  avg # of iterations =  1.9

     total cpu time spent up to now is      274.1 secs

     total energy              =    -184.83183021 Ry
     estimated scf accuracy    <       0.00000007 Ry

     iteration #  6     ecut=    80.00 Ry     beta= 0.20
     Davidson diagonalization with overlap

---- Real-time Memory Report at c_bands before calling an iterative solver
            87 MiB given to the printing process from OS
            63 MiB allocation reported by mallinfo(arena+hblkhd)
        244302 MiB available memory on the node where the printing process lives
------------------
     ethr =  4.36E-11,  avg # of iterations =  5.9

     total cpu time spent up to now is      275.8 secs

     total energy              =    -184.83183022 Ry
     estimated scf accuracy    <          2.6E-09 Ry

     iteration #  7     ecut=    80.00 Ry     beta= 0.20
     Davidson diagonalization with overlap

---- Real-time Memory Report at c_bands before calling an iterative solver
            87 MiB given to the printing process from OS
            63 MiB allocation reported by mallinfo(arena+hblkhd)
        244302 MiB available memory on the node where the printing process lives
------------------
     ethr =  1.01E-11,  avg # of iterations =  1.8

     total cpu time spent up to now is      276.8 secs

     total energy              =    -184.83183022 Ry
     estimated scf accuracy    <          1.6E-09 Ry

     iteration #  8     ecut=    80.00 Ry     beta= 0.20
     Davidson diagonalization with overlap

---- Real-time Memory Report at c_bands before calling an iterative solver
            87 MiB given to the printing process from OS
            63 MiB allocation reported by mallinfo(arena+hblkhd)
        244302 MiB available memory on the node where the printing process lives
------------------
     ethr =  5.98E-12,  avg # of iterations =  4.6

     total cpu time spent up to now is      278.2 secs

     total energy              =    -184.83183022 Ry
     estimated scf accuracy    <          6.1E-10 Ry

     iteration #  9     ecut=    80.00 Ry     beta= 0.20
     Davidson diagonalization with overlap

---- Real-time Memory Report at c_bands before calling an iterative solver
            87 MiB given to the printing process from OS
            63 MiB allocation reported by mallinfo(arena+hblkhd)
        244302 MiB available memory on the node where the printing process lives
------------------
     ethr =  2.36E-12,  avg # of iterations =  1.0

     total cpu time spent up to now is      279.1 secs

     total energy              =    -184.83183022 Ry
     estimated scf accuracy    <          6.2E-10 Ry

     iteration # 10     ecut=    80.00 Ry     beta= 0.20
     Davidson diagonalization with overlap

---- Real-time Memory Report at c_bands before calling an iterative solver
            87 MiB given to the printing process from OS
            63 MiB allocation reported by mallinfo(arena+hblkhd)
        244302 MiB available memory on the node where the printing process lives
------------------
     ethr =  2.36E-12,  avg # of iterations =  5.1

     total cpu time spent up to now is      280.6 secs

     total energy              =    -184.83183022 Ry
     estimated scf accuracy    <          4.8E-10 Ry

     iteration # 11     ecut=    80.00 Ry     beta= 0.20
     Davidson diagonalization with overlap

---- Real-time Memory Report at c_bands before calling an iterative solver
            87 MiB given to the printing process from OS
            63 MiB allocation reported by mallinfo(arena+hblkhd)
        244300 MiB available memory on the node where the printing process lives
------------------
     ethr =  1.84E-12,  avg # of iterations =  1.0

     total cpu time spent up to now is      281.5 secs

     total energy              =    -184.83183022 Ry
     estimated scf accuracy    <          4.0E-10 Ry

     iteration # 12     ecut=    80.00 Ry     beta= 0.20
     Davidson diagonalization with overlap

---- Real-time Memory Report at c_bands before calling an iterative solver
            87 MiB given to the printing process from OS
            63 MiB allocation reported by mallinfo(arena+hblkhd)
        244300 MiB available memory on the node where the printing process lives
------------------
     ethr =  1.54E-12,  avg # of iterations =  2.6

     total cpu time spent up to now is      282.5 secs

     total energy              =    -184.83183022 Ry
     estimated scf accuracy    <          8.1E-11 Ry

     iteration # 13     ecut=    80.00 Ry     beta= 0.20
     Davidson diagonalization with overlap

---- Real-time Memory Report at c_bands before calling an iterative solver
            87 MiB given to the printing process from OS
            63 MiB allocation reported by mallinfo(arena+hblkhd)
        244300 MiB available memory on the node where the printing process lives
------------------
     ethr =  3.10E-13,  avg # of iterations =  4.1

     total cpu time spent up to now is      283.8 secs

     total energy              =    -184.83183022 Ry
     estimated scf accuracy    <          2.3E-12 Ry

     iteration # 14     ecut=    80.00 Ry     beta= 0.20
     Davidson diagonalization with overlap

---- Real-time Memory Report at c_bands before calling an iterative solver
            87 MiB given to the printing process from OS
            63 MiB allocation reported by mallinfo(arena+hblkhd)
        244300 MiB available memory on the node where the printing process lives
------------------
     ethr =  1.00E-13,  avg # of iterations =  4.5

     total cpu time spent up to now is      285.2 secs

     total energy              =    -184.83183022 Ry
     estimated scf accuracy    <          3.0E-11 Ry

     iteration # 15     ecut=    80.00 Ry     beta= 0.20
     Davidson diagonalization with overlap

---- Real-time Memory Report at c_bands before calling an iterative solver
            87 MiB given to the printing process from OS
            63 MiB allocation reported by mallinfo(arena+hblkhd)
        244297 MiB available memory on the node where the printing process lives
------------------
     ethr =  1.00E-13,  avg # of iterations =  1.0

     total cpu time spent up to now is      286.1 secs

     total energy              =    -184.83183022 Ry
     estimated scf accuracy    <          2.7E-11 Ry

     iteration # 16     ecut=    80.00 Ry     beta= 0.20
     Davidson diagonalization with overlap

---- Real-time Memory Report at c_bands before calling an iterative solver
            87 MiB given to the printing process from OS
            63 MiB allocation reported by mallinfo(arena+hblkhd)
        244297 MiB available memory on the node where the printing process lives
------------------
     ethr =  1.00E-13,  avg # of iterations =  1.0

     total cpu time spent up to now is      287.0 secs

     total energy              =    -184.83183022 Ry
     estimated scf accuracy    <          1.8E-11 Ry

     iteration # 17     ecut=    80.00 Ry     beta= 0.20
     Davidson diagonalization with overlap

---- Real-time Memory Report at c_bands before calling an iterative solver
            87 MiB given to the printing process from OS
            63 MiB allocation reported by mallinfo(arena+hblkhd)
        244297 MiB available memory on the node where the printing process lives
------------------
     ethr =  1.00E-13,  avg # of iterations =  1.0

     total cpu time spent up to now is      288.0 secs

     total energy              =    -184.83183022 Ry
     estimated scf accuracy    <          1.1E-11 Ry

     iteration # 18     ecut=    80.00 Ry     beta= 0.20
     Davidson diagonalization with overlap

---- Real-time Memory Report at c_bands before calling an iterative solver
            87 MiB given to the printing process from OS
            63 MiB allocation reported by mallinfo(arena+hblkhd)
        244297 MiB available memory on the node where the printing process lives
------------------
     ethr =  1.00E-13,  avg # of iterations =  1.0

     total cpu time spent up to now is      288.9 secs

     total energy              =    -184.83183022 Ry
     estimated scf accuracy    <          8.0E-12 Ry

     iteration # 19     ecut=    80.00 Ry     beta= 0.20
     Davidson diagonalization with overlap

---- Real-time Memory Report at c_bands before calling an iterative solver
            87 MiB given to the printing process from OS
            63 MiB allocation reported by mallinfo(arena+hblkhd)
        244297 MiB available memory on the node where the printing process lives
------------------
     ethr =  1.00E-13,  avg # of iterations =  3.2

     total cpu time spent up to now is      290.0 secs

     total energy              =    -184.83183022 Ry
     estimated scf accuracy    <          1.8E-12 Ry

     iteration # 20     ecut=    80.00 Ry     beta= 0.20
     Davidson diagonalization with overlap

---- Real-time Memory Report at c_bands before calling an iterative solver
            87 MiB given to the printing process from OS
            63 MiB allocation reported by mallinfo(arena+hblkhd)
        244298 MiB available memory on the node where the printing process lives
------------------
     ethr =  1.00E-13,  avg # of iterations =  1.5

     total cpu time spent up to now is      291.0 secs

     total energy              =    -184.83183022 Ry
     estimated scf accuracy    <          7.0E-13 Ry

     iteration # 21     ecut=    80.00 Ry     beta= 0.20
     Davidson diagonalization with overlap

---- Real-time Memory Report at c_bands before calling an iterative solver
            87 MiB given to the printing process from OS
            63 MiB allocation reported by mallinfo(arena+hblkhd)
        244298 MiB available memory on the node where the printing process lives
------------------
     ethr =  1.00E-13,  avg # of iterations =  1.0

     total cpu time spent up to now is      291.9 secs

     total energy              =    -184.83183022 Ry
     estimated scf accuracy    <          1.7E-13 Ry

     iteration # 22     ecut=    80.00 Ry     beta= 0.20
     Davidson diagonalization with overlap

---- Real-time Memory Report at c_bands before calling an iterative solver
            87 MiB given to the printing process from OS
            63 MiB allocation reported by mallinfo(arena+hblkhd)
        244298 MiB available memory on the node where the printing process lives
------------------
     ethr =  1.00E-13,  avg # of iterations =  1.0

     total cpu time spent up to now is      292.8 secs

     total energy              =    -184.83183022 Ry
     estimated scf accuracy    <          2.1E-12 Ry

     iteration # 23     ecut=    80.00 Ry     beta= 0.20
     Davidson diagonalization with overlap

---- Real-time Memory Report at c_bands before calling an iterative solver
            87 MiB given to the printing process from OS
            63 MiB allocation reported by mallinfo(arena+hblkhd)
        244298 MiB available memory on the node where the printing process lives
------------------
     ethr =  1.00E-13,  avg # of iterations =  1.0

     total cpu time spent up to now is      293.7 secs

     total energy              =    -184.83183022 Ry
     estimated scf accuracy    <          1.2E-13 Ry

     iteration # 24     ecut=    80.00 Ry     beta= 0.20
     Davidson diagonalization with overlap

---- Real-time Memory Report at c_bands before calling an iterative solver
            87 MiB given to the printing process from OS
            63 MiB allocation reported by mallinfo(arena+hblkhd)
        244298 MiB available memory on the node where the printing process lives
------------------
     ethr =  1.00E-13,  avg # of iterations =  1.0

     total cpu time spent up to now is      294.6 secs

     total energy              =    -184.83183022 Ry
     estimated scf accuracy    <          3.6E-13 Ry

     iteration # 25     ecut=    80.00 Ry     beta= 0.20
     Davidson diagonalization with overlap

---- Real-time Memory Report at c_bands before calling an iterative solver
            87 MiB given to the printing process from OS
            63 MiB allocation reported by mallinfo(arena+hblkhd)
        244298 MiB available memory on the node where the printing process lives
------------------
     ethr =  1.00E-13,  avg # of iterations =  1.0

     total cpu time spent up to now is      295.5 secs

     total energy              =    -184.83183022 Ry
     estimated scf accuracy    <          7.0E-13 Ry

     iteration # 26     ecut=    80.00 Ry     beta= 0.20
     Davidson diagonalization with overlap

---- Real-time Memory Report at c_bands before calling an iterative solver
            87 MiB given to the printing process from OS
            63 MiB allocation reported by mallinfo(arena+hblkhd)
        244298 MiB available memory on the node where the printing process lives
------------------
     ethr =  1.00E-13,  avg # of iterations =  1.0

     total cpu time spent up to now is      296.5 secs

     total energy              =    -184.83183022 Ry
     estimated scf accuracy    <          8.0E-13 Ry

     iteration # 27     ecut=    80.00 Ry     beta= 0.20
     Davidson diagonalization with overlap

---- Real-time Memory Report at c_bands before calling an iterative solver
            87 MiB given to the printing process from OS
            63 MiB allocation reported by mallinfo(arena+hblkhd)
        244298 MiB available memory on the node where the printing process lives
------------------
     ethr =  1.00E-13,  avg # of iterations =  1.0

     total cpu time spent up to now is      297.4 secs

     total energy              =    -184.83183022 Ry
     estimated scf accuracy    <          9.2E-14 Ry

     iteration # 28     ecut=    80.00 Ry     beta= 0.20
     Davidson diagonalization with overlap

---- Real-time Memory Report at c_bands before calling an iterative solver
            87 MiB given to the printing process from OS
            63 MiB allocation reported by mallinfo(arena+hblkhd)
        244298 MiB available memory on the node where the printing process lives
------------------
     ethr =  1.00E-13,  avg # of iterations =  1.0

     total cpu time spent up to now is      298.3 secs

     total energy              =    -184.83183022 Ry
     estimated scf accuracy    <          2.6E-13 Ry

     iteration # 29     ecut=    80.00 Ry     beta= 0.20
     Davidson diagonalization with overlap

---- Real-time Memory Report at c_bands before calling an iterative solver
            87 MiB given to the printing process from OS
            63 MiB allocation reported by mallinfo(arena+hblkhd)
        244298 MiB available memory on the node where the printing process lives
------------------
     ethr =  1.00E-13,  avg # of iterations =  1.0

     total cpu time spent up to now is      299.2 secs

     total energy              =    -184.83183022 Ry
     estimated scf accuracy    <          2.7E-13 Ry

     iteration # 30     ecut=    80.00 Ry     beta= 0.20
     Davidson diagonalization with overlap

---- Real-time Memory Report at c_bands before calling an iterative solver
            87 MiB given to the printing process from OS
            63 MiB allocation reported by mallinfo(arena+hblkhd)
        244298 MiB available memory on the node where the printing process lives
------------------
     ethr =  1.00E-13,  avg # of iterations =  1.0

     total cpu time spent up to now is      300.1 secs

     total energy              =    -184.83183022 Ry
     estimated scf accuracy    <          2.7E-14 Ry

     iteration # 31     ecut=    80.00 Ry     beta= 0.20
     Davidson diagonalization with overlap

---- Real-time Memory Report at c_bands before calling an iterative solver
            87 MiB given to the printing process from OS
            63 MiB allocation reported by mallinfo(arena+hblkhd)
        244298 MiB available memory on the node where the printing process lives
------------------
     ethr =  1.00E-13,  avg # of iterations =  1.0

     total cpu time spent up to now is      301.0 secs

     total energy              =    -184.83183022 Ry
     estimated scf accuracy    <          3.4E-15 Ry

     iteration # 32     ecut=    80.00 Ry     beta= 0.20
     Davidson diagonalization with overlap

---- Real-time Memory Report at c_bands before calling an iterative solver
            87 MiB given to the printing process from OS
            63 MiB allocation reported by mallinfo(arena+hblkhd)
        244298 MiB available memory on the node where the printing process lives
------------------
     ethr =  1.00E-13,  avg # of iterations =  1.0

     total cpu time spent up to now is      301.9 secs

     End of self-consistent calculation

          k = 0.0000 0.0000 0.0000 ( 14903 PWs)   bands (ev):

   -66.6868 -40.8919 -40.6290 -40.6290 -20.1836 -18.8200 -11.7311  -8.5911
    -8.5911  -7.8014  -7.4346  -7.4346  -6.0271

     occupation numbers 
     1.0000   1.0000   1.0000   1.0000   1.0000   1.0000   1.0000   1.0000
     1.0000   1.0000   1.0000   1.0000   1.0000

          k = 0.0000 0.0550 0.0000 ( 14887 PWs)   bands (ev):

   -66.6858 -40.8900 -40.6388 -40.6312 -20.1477 -18.8054 -11.6901  -8.6728
    -8.5533  -8.0202  -7.4935  -7.2668  -6.0397

     occupation numbers 
     1.0000   1.0000   1.0000   1.0000   1.0000   1.0000   1.0000   1.0000
     1.0000   1.0000   1.0000   1.0000   1.0000

          k = 0.0000 0.1100 0.0000 ( 14865 PWs)   bands (ev):

   -66.6829 -40.8844 -40.6673 -40.6377 -20.0416 -18.7622 -11.5725  -8.8962
    -8.4425  -8.3779  -7.6549  -7.0772  -6.0885

     occupation numbers 
     1.0000   1.0000   1.0000   1.0000   1.0000   1.0000   1.0000   1.0000
     1.0000   1.0000   1.0000   1.0000   1.0000

          k = 0.0000 0.1650 0.0000 ( 14863 PWs)   bands (ev):

   -66.6784 -40.8755 -40.7117 -40.6477 -19.8709 -18.6928 -11.3979  -9.2063
    -8.7603  -8.2664  -7.8833  -7.0090  -6.2025

     occupation numbers 
     1.0000   1.0000   1.0000   1.0000   1.0000   1.0000   1.0000   1.0000
     1.0000   1.0000   1.0000   1.0000   1.0000

          k = 0.0000 0.2199 0.0000 ( 14819 PWs)   bands (ev):

   -66.6726 -40.8642 -40.7677 -40.6605 -19.6444 -18.6009 -11.2098  -9.5304
    -9.1506  -8.1414  -8.0384  -7.0794  -6.4046

     occupation numbers 
     1.0000   1.0000   1.0000   1.0000   1.0000   1.0000   1.0000   1.0000
     1.0000   1.0000   1.0000   1.0000   1.0000

          k = 0.0000 0.2749 0.0000 ( 14799 PWs)   bands (ev):

   -66.6662 -40.8515 -40.8303 -40.6749 -19.3750 -18.4923 -11.0939  -9.7795
    -9.5407  -8.3997  -7.7780  -7.2436  -6.6666

     occupation numbers 
     1.0000   1.0000   1.0000   1.0000   1.0000   1.0000   1.0000   1.0000
     1.0000   1.0000   1.0000   1.0000   1.0000

          k = 0.0000 0.3299 0.0000 ( 14811 PWs)   bands (ev):

   -66.6595 -40.8937 -40.8385 -40.6895 -19.0803 -18.3748 -11.1489  -9.9191
    -9.8839  -8.6372  -7.5107  -7.4357  -6.8959

     occupation numbers 
     1.0000   1.0000   1.0000   1.0000   1.0000   1.0000   1.0000   1.0000
     1.0000   1.0000   1.0000   1.0000   1.0000

          k = 0.0000 0.3849 0.0000 ( 14770 PWs)   bands (ev):

   -66.6533 -40.9523 -40.8263 -40.7032 -18.7830 -18.2583 -11.3486 -10.2668
    -9.9121  -8.8400  -7.6083  -7.2650  -6.9890

     occupation numbers 
     1.0000   1.0000   1.0000   1.0000   1.0000   1.0000   1.0000   1.0000
     1.0000   1.0000   1.0000   1.0000   1.0000

          k = 0.0000 0.4399 0.0000 ( 14726 PWs)   bands (ev):

   -66.6481 -41.0011 -40.8160 -40.7146 -18.5121 -18.1546 -11.5846 -10.5595
    -9.9704  -8.9988  -7.7400  -7.0667  -6.9166

     occupation numbers 
     1.0000   1.0000   1.0000   1.0000   1.0000   1.0000   1.0000   1.0000
     1.0000   1.0000   1.0000   1.0000   1.0000

          k = 0.0000 0.4949 0.0000 ( 14720 PWs)   bands (ev):

   -66.6443 -41.0360 -40.8086 -40.7228 -18.3017 -18.0761 -11.7810 -10.7721
   -10.0563  -9.1075  -7.8257  -6.9318  -6.7580

     occupation numbers 
     1.0000   1.0000   1.0000   1.0000   1.0000   1.0000   1.0000   1.0000
     1.0000   1.0000   1.0000   1.0000   1.0000

          k = 0.0000 0.5499 0.0000 ( 14732 PWs)   bands (ev):

   -66.6423 -41.0542 -40.8047 -40.7271 -18.1855 -18.0337 -11.8919 -10.8842
   -10.1166  -9.1628  -7.8673  -6.8648  -6.6365

     occupation numbers 
     1.0000   1.0000   1.0000   1.0000   1.0000   1.0000   1.0000   1.0000
     1.0000   1.0000   1.0000   1.0000   1.0000

          k = 0.0476 0.0825 0.0000 ( 14879 PWs)   bands (ev):

   -66.6839 -40.8862 -40.6578 -40.6357 -20.0767 -18.7765 -11.6106  -8.8247
    -8.4797  -8.2736  -7.6196  -7.1060  -6.0703

     occupation numbers 
     1.0000   1.0000   1.0000   1.0000   1.0000   1.0000   1.0000   1.0000
     1.0000   1.0000   1.0000   1.0000   1.0000

          k = 0.0476 0.1375 0.0000 ( 14866 PWs)   bands (ev):

   -66.6802 -40.8790 -40.6938 -40.6444 -19.9383 -18.7202 -11.4635  -9.0892
    -8.6059  -8.3386  -7.8502  -6.9738  -6.1516

     occupation numbers 
     1.0000   1.0000   1.0000   1.0000   1.0000   1.0000   1.0000   1.0000
     1.0000   1.0000   1.0000   1.0000   1.0000

          k = 0.0476 0.1925 0.0000 ( 14822 PWs)   bands (ev):

   -66.6750 -40.8689 -40.7433 -40.6565 -19.7395 -18.6394 -11.2780  -9.4031
    -8.9653  -8.1428  -8.1292  -6.9596  -6.3109

     occupation numbers 
     1.0000   1.0000   1.0000   1.0000   1.0000   1.0000   1.0000   1.0000
     1.0000   1.0000   1.0000   1.0000   1.0000

          k = 0.0476 0.2474 0.0000 ( 14793 PWs)   bands (ev):

   -66.6689 -40.8569 -40.8018 -40.6709 -19.4913 -18.5388 -11.1169  -9.6865
    -9.3417  -8.4074  -7.9132  -7.0677  -6.5459

     occupation numbers 
     1.0000   1.0000   1.0000   1.0000   1.0000   1.0000   1.0000   1.0000
     1.0000   1.0000   1.0000   1.0000   1.0000

          k = 0.0476 0.3024 0.0000 ( 14818 PWs)   bands (ev):

   -66.6623 -40.8639 -40.8440 -40.6862 -19.2086 -18.4252 -11.0838  -9.8485
    -9.7265  -8.6520  -7.6831  -7.2492  -6.7854

     occupation numbers 
     1.0000   1.0000   1.0000   1.0000   1.0000   1.0000   1.0000   1.0000
     1.0000   1.0000   1.0000   1.0000   1.0000

          k = 0.0476 0.3574 0.0000 ( 14790 PWs)   bands (ev):

   -66.6559 -40.9241 -40.8314 -40.7012 -18.9115 -18.3073 -11.2237 -10.0998
    -9.8854  -8.8491  -7.4977  -7.4473  -6.9057

     occupation numbers 
     1.0000   1.0000   1.0000   1.0000   1.0000   1.0000   1.0000   1.0000
     1.0000   1.0000   1.0000   1.0000   1.0000

          k = 0.0476 0.4124 0.0000 ( 14761 PWs)   bands (ev):

   -66.6502 -40.9771 -40.8202 -40.7144 -18.6256 -18.1960 -11.4480 -10.4333
    -9.9175  -8.9972  -7.6227  -7.3642  -6.8475

     occupation numbers 
     1.0000   1.0000   1.0000   1.0000   1.0000   1.0000   1.0000   1.0000
     1.0000   1.0000   1.0000   1.0000   1.0000

          k = 0.0476 0.4674 0.0000 ( 14735 PWs)   bands (ev):

   -66.6457 -41.0184 -40.8113 -40.7248 -18.3827 -18.1036 -11.6642 -10.6975
    -9.9964  -9.0995  -7.7552  -7.2357  -6.6996

     occupation numbers 
     1.0000   1.0000   1.0000   1.0000   1.0000   1.0000   1.0000   1.0000
     1.0000   1.0000   1.0000   1.0000   1.0000

          k = 0.0476 0.5224 0.0000 ( 14722 PWs)   bands (ev):

   -66.6428 -41.0446 -40.8057 -40.7314 -18.2172 -18.0421 -11.8168 -10.8674
   -10.0782  -9.1595  -7.8363  -7.1349  -6.5578

     occupation numbers 
     1.0000   1.0000   1.0000   1.0000   1.0000   1.0000   1.0000   1.0000
     1.0000   1.0000   1.0000   1.0000   1.0000

          k = 0.0476 0.5774 0.0000 ( 14726 PWs)   bands (ev):

   -66.6418 -41.0536 -40.8037 -40.7337 -18.1582 -18.0205 -11.8719 -10.9260
   -10.1118  -9.1792  -7.8635  -7.0985  -6.4982

     occupation numbers 
     1.0000   1.0000   1.0000   1.0000   1.0000   1.0000   1.0000   1.0000
     1.0000   1.0000   1.0000   1.0000   1.0000

          k = 0.0952 0.1650 0.0000 ( 14831 PWs)   bands (ev):

   -66.6759 -40.8705 -40.7341 -40.6559 -19.7717 -18.6524 -11.3025  -9.3539
    -8.8735  -8.1831  -8.1802  -6.8807  -6.2788

     occupation numbers 
     1.0000   1.0000   1.0000   1.0000   1.0000   1.0000   1.0000   1.0000
     1.0000   1.0000   1.0000   1.0000   1.0000

          k = 0.0952 0.2199 0.0000 ( 14819 PWs)   bands (ev):

   -66.6703 -40.8597 -40.7847 -40.6710 -19.5510 -18.5625 -11.1331  -9.6221
    -9.1711  -8.5370  -8.0017  -6.8852  -6.4756

     occupation numbers 
     1.0000   1.0000   1.0000   1.0000   1.0000   1.0000   1.0000   1.0000
     1.0000   1.0000   1.0000   1.0000   1.0000

          k = 0.0952 0.2749 0.0000 ( 14797 PWs)   bands (ev):

   -66.6641 -40.8476 -40.8410 -40.6881 -19.2886 -18.4562 -11.0403  -9.8051
    -9.5233  -8.8253  -7.8392  -7.0012  -6.6933

     occupation numbers 
     1.0000   1.0000   1.0000   1.0000   1.0000   1.0000   1.0000   1.0000
     1.0000   1.0000   1.0000   1.0000   1.0000

          k = 0.0952 0.3299 0.0000 ( 14799 PWs)   bands (ev):

   -66.6578 -40.8981 -40.8351 -40.7056 -19.0020 -18.3408 -11.1063  -9.9187
    -9.8492  -9.0114  -7.7530  -7.1911  -6.8202

     occupation numbers 
     1.0000   1.0000   1.0000   1.0000   1.0000   1.0000   1.0000   1.0000
     1.0000   1.0000   1.0000   1.0000   1.0000

          k = 0.0952 0.3849 0.0000 ( 14775 PWs)   bands (ev):

   -66.6518 -40.9508 -40.8234 -40.7219 -18.7136 -18.2261 -11.2897 -10.3035
    -9.8456  -9.1178  -7.7284  -7.4052  -6.7914

     occupation numbers 
     1.0000   1.0000   1.0000   1.0000   1.0000   1.0000   1.0000   1.0000
     1.0000   1.0000   1.0000   1.0000   1.0000

          k = 0.0952 0.4399 0.0000 ( 14747 PWs)   bands (ev):

   -66.6468 -40.9948 -40.8136 -40.7356 -18.4517 -18.1237 -11.4957 -10.6305
    -9.8999  -9.1703  -7.6753  -7.6034  -6.6654

     occupation numbers 
     1.0000   1.0000   1.0000   1.0000   1.0000   1.0000   1.0000   1.0000
     1.0000   1.0000   1.0000   1.0000   1.0000

          k = 0.0952 0.4949 0.0000 ( 14735 PWs)   bands (ev):

   -66.6432 -41.0263 -40.8065 -40.7455 -18.2492 -18.0459 -11.6638 -10.8670
    -9.9958  -9.1894  -7.7554  -7.5959  -6.5123

     occupation numbers 
     1.0000   1.0000   1.0000   1.0000   1.0000   1.0000   1.0000   1.0000
     1.0000   1.0000   1.0000   1.0000   1.0000

          k = 0.0952 0.5499 0.0000 ( 14720 PWs)   bands (ev):

   -66.6414 -41.0428 -40.8028 -40.7506 -18.1377 -18.0038 -11.7578 -10.9909
   -10.0650  -9.1929  -7.8384  -7.5438  -6.4026

     occupation numbers 
     1.0000   1.0000   1.0000   1.0000   1.0000   1.0000   1.0000   1.0000
     1.0000   1.0000   1.0000   1.0000   1.0000

          k = 0.1429 0.2474 0.0000 ( 14805 PWs)   bands (ev):

   -66.6648 -40.8488 -40.8321 -40.6898 -19.3158 -18.4666 -11.0251  -9.7856
    -9.4016  -8.9488  -7.8994  -6.8902  -6.6595

     occupation numbers 
     1.0000   1.0000   1.0000   1.0000   1.0000   1.0000   1.0000   1.0000
     1.0000   1.0000   1.0000   1.0000   1.0000

          k = 0.1429 0.3024 0.0000 ( 14800 PWs)   bands (ev):

   -66.6588 -40.8816 -40.8370 -40.7108 -19.0487 -18.3577 -11.0338  -9.8224
    -9.7561  -9.1907  -7.9078  -7.0033  -6.7765

     occupation numbers 
     1.0000   1.0000   1.0000   1.0000   1.0000   1.0000   1.0000   1.0000
     1.0000   1.0000   1.0000   1.0000   1.0000

          k = 0.1429 0.3574 0.0000 ( 14795 PWs)   bands (ev):

   -66.6529 -40.9291 -40.8255 -40.7319 -18.7691 -18.2442 -11.1587 -10.1807
    -9.7752  -9.2741  -8.0170  -7.1968  -6.7709

     occupation numbers 
     1.0000   1.0000   1.0000   1.0000   1.0000   1.0000   1.0000   1.0000
     1.0000   1.0000   1.0000   1.0000   1.0000

          k = 0.1429 0.4124 0.0000 ( 14779 PWs)   bands (ev):

   -66.6477 -40.9707 -40.8153 -40.7507 -18.5019 -18.1365 -11.3238 -10.5684
    -9.7758  -9.2810  -8.1019  -7.4239  -6.6738

     occupation numbers 
     1.0000   1.0000   1.0000   1.0000   1.0000   1.0000   1.0000   1.0000
     1.0000   1.0000   1.0000   1.0000   1.0000

          k = 0.1429 0.4674 0.0000 ( 14755 PWs)   bands (ev):

   -66.6436 -41.0031 -40.8072 -40.7657 -18.2766 -18.0466 -11.4713 -10.8719
    -9.8676  -9.2472  -8.1040  -7.6384  -6.5243

     occupation numbers 
     1.0000   1.0000   1.0000   1.0000   1.0000   1.0000   1.0000   1.0000
     1.0000   1.0000   1.0000   1.0000   1.0000

          k = 0.1429 0.5224 0.0000 ( 14748 PWs)   bands (ev):

   -66.6410 -41.0237 -40.8021 -40.7752 -18.1244 -17.9865 -11.5707 -11.0647
    -9.9762  -9.2033  -8.0738  -7.7960  -6.3754

     occupation numbers 
     1.0000   1.0000   1.0000   1.0000   1.0000   1.0000   1.0000   1.0000
     1.0000   1.0000   1.0000   1.0000   1.0000

          k = 0.1429 0.5774 0.0000 ( 14726 PWs)   bands (ev):

   -66.6401 -41.0307 -40.8003 -40.7785 -18.0704 -17.9653 -11.6057 -11.1308
   -10.0217  -9.1830  -8.0595  -7.8551  -6.3101

     occupation numbers 
     1.0000   1.0000   1.0000   1.0000   1.0000   1.0000   1.0000   1.0000
     1.0000   1.0000   1.0000   1.0000   1.0000

          k = 0.1905 0.3299 0.0000 ( 14785 PWs)   bands (ev):

   -66.6533 -40.9203 -40.8262 -40.7366 -18.7881 -18.2503 -11.1070 -10.1222
    -9.7434  -9.3501  -8.1301  -7.1109  -6.7667

     occupation numbers 
     1.0000   1.0000   1.0000   1.0000   1.0000   1.0000   1.0000   1.0000
     1.0000   1.0000   1.0000   1.0000   1.0000

          k = 0.1905 0.3849 0.0000 ( 14761 PWs)   bands (ev):

   -66.6481 -40.9544 -40.8162 -40.7625 -18.5282 -18.1427 -11.2122 -10.5265
    -9.6655  -9.3622  -8.3919  -7.3028  -6.6891

     occupation numbers 
     1.0000   1.0000   1.0000   1.0000   1.0000   1.0000   1.0000   1.0000
     1.0000   1.0000   1.0000   1.0000   1.0000

          k = 0.1905 0.4399 0.0000 ( 14749 PWs)   bands (ev):

   -66.6438 -40.9817 -40.8077 -40.7853 -18.2951 -18.0459 -11.3035 -10.8757
    -9.7002  -9.3027  -8.5592  -7.5324  -6.5529

     occupation numbers 
     1.0000   1.0000   1.0000   1.0000   1.0000   1.0000   1.0000   1.0000
     1.0000   1.0000   1.0000   1.0000   1.0000

          k = 0.1905 0.4949 0.0000 ( 14738 PWs)   bands (ev):

   -66.6407 -41.0008 -40.8023 -40.8015 -18.1171 -17.9720 -11.3606 -11.1279
    -9.8377  -9.2137  -8.6072  -7.7460  -6.3808

     occupation numbers 
     1.0000   1.0000   1.0000   1.0000   1.0000   1.0000   1.0000   1.0000
     1.0000   1.0000   1.0000   1.0000   1.0000

          k = 0.1905 0.5499 0.0000 ( 14758 PWs)   bands (ev):

   -66.6391 -41.0105 -40.8113 -40.7983 -18.0201 -17.9318 -11.3842 -11.2598
    -9.9513  -9.1440  -8.6092  -7.8816  -6.2498

     occupation numbers 
     1.0000   1.0000   1.0000   1.0000   1.0000   1.0000   1.0000   1.0000
     1.0000   1.0000   1.0000   1.0000   1.0000

          k = 0.2381 0.4124 0.0000 ( 14762 PWs)   bands (ev):

   -66.6439 -40.9725 -40.8078 -40.7939 -18.3016 -18.0455 -11.2356 -10.8769
    -9.5902  -9.3251  -8.7780  -7.4895  -6.5663

     occupation numbers 
     1.0000   1.0000   1.0000   1.0000   1.0000   1.0000   1.0000   1.0000
     1.0000   1.0000   1.0000   1.0000   1.0000

          k = 0.2381 0.4674 0.0000 ( 14743 PWs)   bands (ev):

   -66.6405 -40.9832 -40.8221 -40.8013 -18.1140 -17.9638 -11.2133 -11.1640
    -9.6529  -9.2212  -9.0350  -7.7108  -6.3911

     occupation numbers 
     1.0000   1.0000   1.0000   1.0000   1.0000   1.0000   1.0000   1.0000
     1.0000   1.0000   1.0000   1.0000   1.0000

          k = 0.2381 0.5224 0.0000 ( 14764 PWs)   bands (ev):

   -66.6384 -40.9880 -40.8421 -40.7971 -17.9893 -17.9088 -11.3499 -11.1588
    -9.8429  -9.1072  -9.1045  -7.9043  -6.2103

     occupation numbers 
     1.0000   1.0000   1.0000   1.0000   1.0000   1.0000   1.0000   1.0000
     1.0000   1.0000   1.0000   1.0000   1.0000

          k = 0.2381 0.5774 0.0000 ( 14780 PWs)   bands (ev):

   -66.6377 -40.9892 -40.8494 -40.7957 -17.9456 -17.8894 -11.4141 -11.1262
    -9.9421  -9.1156  -9.0490  -7.9865  -6.1282

     occupation numbers 
     1.0000   1.0000   1.0000   1.0000   1.0000   1.0000   1.0000   1.0000
     1.0000   1.0000   1.0000   1.0000   1.0000

          k = 0.2857 0.4949 0.0000 ( 14734 PWs)   bands (ev):

   -66.6382 -40.9765 -40.8564 -40.7967 -17.9790 -17.9006 -11.3821 -11.0549
    -9.7316  -9.3785  -9.0883  -7.9130  -6.1957

     occupation numbers 
     1.0000   1.0000   1.0000   1.0000   1.0000   1.0000   1.0000   1.0000
     1.0000   1.0000   1.0000   1.0000   1.0000

          k = 0.2857 0.5499 0.0000 ( 14738 PWs)   bands (ev):

   -66.6370 -40.9672 -40.8802 -40.7942 -17.9069 -17.8661 -11.4986 -10.8842
    -9.9752  -9.4504  -8.9739  -8.0642  -6.0438

     occupation numbers 
     1.0000   1.0000   1.0000   1.0000   1.0000   1.0000   1.0000   1.0000
     1.0000   1.0000   1.0000   1.0000   1.0000

          k = 0.3333 0.5774 0.0000 ( 14760 PWs)   bands (ev):

   -66.6365 -40.9515 -40.9019 -40.7933 -17.8784 -17.8509 -11.5508 -10.6847
   -10.1609  -9.5345  -8.9084  -8.1398  -5.9682

     occupation numbers 
     1.0000   1.0000   1.0000   1.0000   1.0000   1.0000   1.0000   1.0000
     1.0000   1.0000   1.0000   1.0000   1.0000

     highest occupied level (ev):    -5.9682

!    total energy              =    -184.83183022 Ry
     estimated scf accuracy    <          9.6E-16 Ry

     convergence has been achieved in  32 iterations

     Forces acting on atoms (cartesian axes, Ry/au):

     atom    1 type  1   force =     0.00000000    0.00000000    0.00000000
     atom    2 type  2   force =     0.00000000    0.00000000   -0.00003931
     atom    3 type  2   force =     0.00000000   -0.00000000    0.00003931
     The non-local contrib.  to forces
     atom    1 type  1   force =     0.00000000   -0.00000000    0.00000000
     atom    2 type  2   force =    -0.00000000    0.00000000   -0.25594692
     atom    3 type  2   force =     0.00000000    0.00000000    0.25594692
     The ionic contribution  to forces
     atom    1 type  1   force =     0.00000001    0.00000097    0.00000000
     atom    2 type  2   force =    -0.00000000   -0.00000048   46.86216379
     atom    3 type  2   force =    -0.00000000   -0.00000048  -46.86216379
     The local contribution  to forces
     atom    1 type  1   force =     0.00000000    0.00002380    0.00000000
     atom    2 type  2   force =    -0.00000001    0.00000001  -46.61044521
     atom    3 type  2   force =    -0.00000001    0.00000001   46.61044521
     The core correction contribution to forces
     atom    1 type  1   force =     0.00000000   -0.00000040   -0.00000000
     atom    2 type  2   force =     0.00000000   -0.00000000    0.00418901
     atom    3 type  2   force =     0.00000000   -0.00000000   -0.00418901
     The Hubbard contrib.    to forces
     atom    1 type  1   force =     0.00000000    0.00000000    0.00000000
     atom    2 type  2   force =     0.00000000    0.00000000    0.00000000
     atom    3 type  2   force =     0.00000000    0.00000000    0.00000000
     The SCF correction term to forces
     atom    1 type  1   force =     0.00000000   -0.00000000    0.00000000
     atom    2 type  2   force =    -0.00000000   -0.00000000    0.00000001
     atom    3 type  2   force =    -0.00000000    0.00000000   -0.00000001

     Total force =     0.000056     Total SCF correction =     0.000000

     Entering Dynamics:    iteration =     6

     <vel(dt)|acc(dt)> =  -1.00000000

ATOMIC_POSITIONS (crystal)
Mo               0.3333333000        0.6666666000        0.5000000000    0   0   0
S                0.6666666670        0.3333333330        0.5735826206    0   0   1
S                0.6666666670        0.3333333330        0.4264173794    0   0   1



     Writing config-only to output data dir ./tmp/MoS2.save/ :
     XML data file
     NEW-OLD atomic charge density approx. for the potential

     total cpu time spent up to now is      302.1 secs

     per-process dynamical memory:    64.5 Mb

     Self-consistent Calculation

     iteration #  1     ecut=    80.00 Ry     beta= 0.20
     Davidson diagonalization with overlap

---- Real-time Memory Report at c_bands before calling an iterative solver
            87 MiB given to the printing process from OS
            63 MiB allocation reported by mallinfo(arena+hblkhd)
        244281 MiB available memory on the node where the printing process lives
------------------
     ethr =  1.00E-06,  avg # of iterations =  1.0

     Threshold (ethr) on eigenvalues was too large:
     Diagonalizing with lowered threshold

     Davidson diagonalization with overlap

---- Real-time Memory Report at c_bands before calling an iterative solver
            87 MiB given to the printing process from OS
            63 MiB allocation reported by mallinfo(arena+hblkhd)
        244295 MiB available memory on the node where the printing process lives
------------------
     ethr =  9.75E-12,  avg # of iterations =  4.9

     total cpu time spent up to now is      304.5 secs

     total energy              =    -184.83183022 Ry
     estimated scf accuracy    <          7.3E-11 Ry

     iteration #  2     ecut=    80.00 Ry     beta= 0.20
     Davidson diagonalization with overlap

---- Real-time Memory Report at c_bands before calling an iterative solver
            87 MiB given to the printing process from OS
            63 MiB allocation reported by mallinfo(arena+hblkhd)
        244295 MiB available memory on the node where the printing process lives
------------------
     ethr =  2.81E-13,  avg # of iterations =  6.7

     total cpu time spent up to now is      306.0 secs

     total energy              =    -184.83183022 Ry
     estimated scf accuracy    <          1.2E-10 Ry

     iteration #  3     ecut=    80.00 Ry     beta= 0.20
     Davidson diagonalization with overlap

---- Real-time Memory Report at c_bands before calling an iterative solver
            87 MiB given to the printing process from OS
            63 MiB allocation reported by mallinfo(arena+hblkhd)
        244295 MiB available memory on the node where the printing process lives
------------------
     ethr =  2.81E-13,  avg # of iterations =  1.0

     total cpu time spent up to now is      306.9 secs

     total energy              =    -184.83183022 Ry
     estimated scf accuracy    <          1.1E-10 Ry

     iteration #  4     ecut=    80.00 Ry     beta= 0.20
     Davidson diagonalization with overlap

---- Real-time Memory Report at c_bands before calling an iterative solver
            87 MiB given to the printing process from OS
            63 MiB allocation reported by mallinfo(arena+hblkhd)
        244295 MiB available memory on the node where the printing process lives
------------------
     ethr =  2.81E-13,  avg # of iterations =  6.4

     total cpu time spent up to now is      308.8 secs

     total energy              =    -184.83183022 Ry
     estimated scf accuracy    <          6.2E-10 Ry

     iteration #  5     ecut=    80.00 Ry     beta= 0.20
     Davidson diagonalization with overlap

---- Real-time Memory Report at c_bands before calling an iterative solver
            87 MiB given to the printing process from OS
            63 MiB allocation reported by mallinfo(arena+hblkhd)
        244295 MiB available memory on the node where the printing process lives
------------------
     ethr =  2.81E-13,  avg # of iterations =  2.0

     total cpu time spent up to now is      309.8 secs

     total energy              =    -184.83183022 Ry
     estimated scf accuracy    <          4.4E-10 Ry

     iteration #  6     ecut=    80.00 Ry     beta= 0.20
     Davidson diagonalization with overlap

---- Real-time Memory Report at c_bands before calling an iterative solver
            87 MiB given to the printing process from OS
            63 MiB allocation reported by mallinfo(arena+hblkhd)
        244295 MiB available memory on the node where the printing process lives
------------------
     ethr =  2.81E-13,  avg # of iterations =  6.2

     total cpu time spent up to now is      311.4 secs

     total energy              =    -184.83183022 Ry
     estimated scf accuracy    <          2.6E-11 Ry

     iteration #  7     ecut=    80.00 Ry     beta= 0.20
     Davidson diagonalization with overlap

---- Real-time Memory Report at c_bands before calling an iterative solver
            87 MiB given to the printing process from OS
            63 MiB allocation reported by mallinfo(arena+hblkhd)
        244295 MiB available memory on the node where the printing process lives
------------------
     ethr =  1.01E-13,  avg # of iterations =  1.7

     total cpu time spent up to now is      312.4 secs

     total energy              =    -184.83183022 Ry
     estimated scf accuracy    <          1.1E-11 Ry

     iteration #  8     ecut=    80.00 Ry     beta= 0.20
     Davidson diagonalization with overlap

---- Real-time Memory Report at c_bands before calling an iterative solver
            87 MiB given to the printing process from OS
            63 MiB allocation reported by mallinfo(arena+hblkhd)
        244295 MiB available memory on the node where the printing process lives
------------------
     ethr =  1.00E-13,  avg # of iterations =  4.5

     total cpu time spent up to now is      313.7 secs

     total energy              =    -184.83183022 Ry
     estimated scf accuracy    <          1.0E-11 Ry

     iteration #  9     ecut=    80.00 Ry     beta= 0.20
     Davidson diagonalization with overlap

---- Real-time Memory Report at c_bands before calling an iterative solver
            87 MiB given to the printing process from OS
            63 MiB allocation reported by mallinfo(arena+hblkhd)
        244295 MiB available memory on the node where the printing process lives
------------------
     ethr =  1.00E-13,  avg # of iterations =  1.0

     total cpu time spent up to now is      314.6 secs

     total energy              =    -184.83183022 Ry
     estimated scf accuracy    <          1.2E-11 Ry

     iteration # 10     ecut=    80.00 Ry     beta= 0.20
     Davidson diagonalization with overlap

---- Real-time Memory Report at c_bands before calling an iterative solver
            87 MiB given to the printing process from OS
            63 MiB allocation reported by mallinfo(arena+hblkhd)
        244290 MiB available memory on the node where the printing process lives
------------------
     ethr =  1.00E-13,  avg # of iterations =  1.1

     total cpu time spent up to now is      315.6 secs

     total energy              =    -184.83183022 Ry
     estimated scf accuracy    <          5.2E-12 Ry

     iteration # 11     ecut=    80.00 Ry     beta= 0.20
     Davidson diagonalization with overlap

---- Real-time Memory Report at c_bands before calling an iterative solver
            87 MiB given to the printing process from OS
            63 MiB allocation reported by mallinfo(arena+hblkhd)
        244289 MiB available memory on the node where the printing process lives
------------------
     ethr =  1.00E-13,  avg # of iterations =  2.0

     total cpu time spent up to now is      316.6 secs

     total energy              =    -184.83183022 Ry
     estimated scf accuracy    <          5.5E-14 Ry

     iteration # 12     ecut=    80.00 Ry     beta= 0.20
     Davidson diagonalization with overlap

---- Real-time Memory Report at c_bands before calling an iterative solver
            87 MiB given to the printing process from OS
            63 MiB allocation reported by mallinfo(arena+hblkhd)
        244290 MiB available memory on the node where the printing process lives
------------------
     ethr =  1.00E-13,  avg # of iterations =  1.0

     total cpu time spent up to now is      317.5 secs

     total energy              =    -184.83183022 Ry
     estimated scf accuracy    <          2.5E-14 Ry

     iteration # 13     ecut=    80.00 Ry     beta= 0.20
     Davidson diagonalization with overlap

---- Real-time Memory Report at c_bands before calling an iterative solver
            87 MiB given to the printing process from OS
            63 MiB allocation reported by mallinfo(arena+hblkhd)
        244291 MiB available memory on the node where the printing process lives
------------------
     ethr =  1.00E-13,  avg # of iterations =  1.0

     total cpu time spent up to now is      318.4 secs

     total energy              =    -184.83183022 Ry
     estimated scf accuracy    <          1.2E-13 Ry

     iteration # 14     ecut=    80.00 Ry     beta= 0.20
     Davidson diagonalization with overlap

---- Real-time Memory Report at c_bands before calling an iterative solver
            87 MiB given to the printing process from OS
            63 MiB allocation reported by mallinfo(arena+hblkhd)
        244291 MiB available memory on the node where the printing process lives
------------------
     ethr =  1.00E-13,  avg # of iterations =  1.0

     total cpu time spent up to now is      319.3 secs

     total energy              =    -184.83183022 Ry
     estimated scf accuracy    <          8.5E-13 Ry

     iteration # 15     ecut=    80.00 Ry     beta= 0.20
     Davidson diagonalization with overlap

---- Real-time Memory Report at c_bands before calling an iterative solver
            87 MiB given to the printing process from OS
            63 MiB allocation reported by mallinfo(arena+hblkhd)
        244268 MiB available memory on the node where the printing process lives
------------------
     ethr =  1.00E-13,  avg # of iterations =  1.0

     total cpu time spent up to now is      320.1 secs

     total energy              =    -184.83183022 Ry
     estimated scf accuracy    <          8.7E-13 Ry

     iteration # 16     ecut=    80.00 Ry     beta= 0.20
     Davidson diagonalization with overlap

---- Real-time Memory Report at c_bands before calling an iterative solver
            87 MiB given to the printing process from OS
            63 MiB allocation reported by mallinfo(arena+hblkhd)
        244291 MiB available memory on the node where the printing process lives
------------------
     ethr =  1.00E-13,  avg # of iterations =  1.0

     total cpu time spent up to now is      321.0 secs

     total energy              =    -184.83183022 Ry
     estimated scf accuracy    <          6.9E-13 Ry

     iteration # 17     ecut=    80.00 Ry     beta= 0.20
     Davidson diagonalization with overlap

---- Real-time Memory Report at c_bands before calling an iterative solver
            87 MiB given to the printing process from OS
            63 MiB allocation reported by mallinfo(arena+hblkhd)
        244291 MiB available memory on the node where the printing process lives
------------------
     ethr =  1.00E-13,  avg # of iterations =  1.0

     total cpu time spent up to now is      321.9 secs

     total energy              =    -184.83183022 Ry
     estimated scf accuracy    <          6.3E-13 Ry

     iteration # 18     ecut=    80.00 Ry     beta= 0.20
     Davidson diagonalization with overlap

---- Real-time Memory Report at c_bands before calling an iterative solver
            87 MiB given to the printing process from OS
            63 MiB allocation reported by mallinfo(arena+hblkhd)
        244291 MiB available memory on the node where the printing process lives
------------------
     ethr =  1.00E-13,  avg # of iterations =  1.0

     total cpu time spent up to now is      322.8 secs

     total energy              =    -184.83183022 Ry
     estimated scf accuracy    <          4.9E-14 Ry

     iteration # 19     ecut=    80.00 Ry     beta= 0.20
     Davidson diagonalization with overlap

---- Real-time Memory Report at c_bands before calling an iterative solver
            87 MiB given to the printing process from OS
            63 MiB allocation reported by mallinfo(arena+hblkhd)
        244291 MiB available memory on the node where the printing process lives
------------------
     ethr =  1.00E-13,  avg # of iterations =  1.0

     total cpu time spent up to now is      323.8 secs

     total energy              =    -184.83183022 Ry
     estimated scf accuracy    <          1.3E-13 Ry

     iteration # 20     ecut=    80.00 Ry     beta= 0.20
     Davidson diagonalization with overlap

---- Real-time Memory Report at c_bands before calling an iterative solver
            87 MiB given to the printing process from OS
            63 MiB allocation reported by mallinfo(arena+hblkhd)
        244291 MiB available memory on the node where the printing process lives
------------------
     ethr =  1.00E-13,  avg # of iterations =  1.0

     total cpu time spent up to now is      324.7 secs

     total energy              =    -184.83183022 Ry
     estimated scf accuracy    <          1.2E-13 Ry

     iteration # 21     ecut=    80.00 Ry     beta= 0.20
     Davidson diagonalization with overlap

---- Real-time Memory Report at c_bands before calling an iterative solver
            87 MiB given to the printing process from OS
            63 MiB allocation reported by mallinfo(arena+hblkhd)
        244292 MiB available memory on the node where the printing process lives
------------------
     ethr =  1.00E-13,  avg # of iterations =  1.0

     total cpu time spent up to now is      325.6 secs

     total energy              =    -184.83183022 Ry
     estimated scf accuracy    <          1.3E-13 Ry

     iteration # 22     ecut=    80.00 Ry     beta= 0.20
     Davidson diagonalization with overlap

---- Real-time Memory Report at c_bands before calling an iterative solver
            87 MiB given to the printing process from OS
            63 MiB allocation reported by mallinfo(arena+hblkhd)
        244292 MiB available memory on the node where the printing process lives
------------------
     ethr =  1.00E-13,  avg # of iterations =  1.0

     total cpu time spent up to now is      326.5 secs

     total energy              =    -184.83183022 Ry
     estimated scf accuracy    <          1.2E-13 Ry

     iteration # 23     ecut=    80.00 Ry     beta= 0.20
     Davidson diagonalization with overlap

---- Real-time Memory Report at c_bands before calling an iterative solver
            87 MiB given to the printing process from OS
            63 MiB allocation reported by mallinfo(arena+hblkhd)
        244292 MiB available memory on the node where the printing process lives
------------------
     ethr =  1.00E-13,  avg # of iterations =  1.0

     total cpu time spent up to now is      327.4 secs

     total energy              =    -184.83183022 Ry
     estimated scf accuracy    <          1.1E-12 Ry

     iteration # 24     ecut=    80.00 Ry     beta= 0.20
     Davidson diagonalization with overlap

---- Real-time Memory Report at c_bands before calling an iterative solver
            87 MiB given to the printing process from OS
            63 MiB allocation reported by mallinfo(arena+hblkhd)
        244292 MiB available memory on the node where the printing process lives
------------------
     ethr =  1.00E-13,  avg # of iterations =  1.0

     total cpu time spent up to now is      328.3 secs

     total energy              =    -184.83183022 Ry
     estimated scf accuracy    <          1.1E-13 Ry

     iteration # 25     ecut=    80.00 Ry     beta= 0.20
     Davidson diagonalization with overlap

---- Real-time Memory Report at c_bands before calling an iterative solver
            87 MiB given to the printing process from OS
            63 MiB allocation reported by mallinfo(arena+hblkhd)
        244292 MiB available memory on the node where the printing process lives
------------------
     ethr =  1.00E-13,  avg # of iterations =  1.0

     total cpu time spent up to now is      329.2 secs

     total energy              =    -184.83183022 Ry
     estimated scf accuracy    <          1.6E-14 Ry

     iteration # 26     ecut=    80.00 Ry     beta= 0.20
     Davidson diagonalization with overlap

---- Real-time Memory Report at c_bands before calling an iterative solver
            87 MiB given to the printing process from OS
            63 MiB allocation reported by mallinfo(arena+hblkhd)
        244292 MiB available memory on the node where the printing process lives
------------------
     ethr =  1.00E-13,  avg # of iterations =  1.0

     total cpu time spent up to now is      330.1 secs

     End of self-consistent calculation

          k = 0.0000 0.0000 0.0000 ( 14903 PWs)   bands (ev):

   -66.6868 -40.8919 -40.6290 -40.6290 -20.1837 -18.8200 -11.7312  -8.5912
    -8.5912  -7.8013  -7.4347  -7.4347  -6.0270

     occupation numbers 
     1.0000   1.0000   1.0000   1.0000   1.0000   1.0000   1.0000   1.0000
     1.0000   1.0000   1.0000   1.0000   1.0000

          k = 0.0000 0.0550 0.0000 ( 14887 PWs)   bands (ev):

   -66.6858 -40.8900 -40.6388 -40.6312 -20.1478 -18.8054 -11.6901  -8.6730
    -8.5535  -8.0203  -7.4936  -7.2668  -6.0396

     occupation numbers 
     1.0000   1.0000   1.0000   1.0000   1.0000   1.0000   1.0000   1.0000
     1.0000   1.0000   1.0000   1.0000   1.0000

          k = 0.0000 0.1100 0.0000 ( 14865 PWs)   bands (ev):

   -66.6829 -40.8844 -40.6673 -40.6377 -20.0417 -18.7623 -11.5726  -8.8964
    -8.4427  -8.3779  -7.6551  -7.0773  -6.0885

     occupation numbers 
     1.0000   1.0000   1.0000   1.0000   1.0000   1.0000   1.0000   1.0000
     1.0000   1.0000   1.0000   1.0000   1.0000

          k = 0.0000 0.1650 0.0000 ( 14863 PWs)   bands (ev):

   -66.6784 -40.8755 -40.7117 -40.6477 -19.8710 -18.6928 -11.3980  -9.2064
    -8.7604  -8.2666  -7.8834  -7.0090  -6.2025

     occupation numbers 
     1.0000   1.0000   1.0000   1.0000   1.0000   1.0000   1.0000   1.0000
     1.0000   1.0000   1.0000   1.0000   1.0000

          k = 0.0000 0.2199 0.0000 ( 14819 PWs)   bands (ev):

   -66.6727 -40.8643 -40.7678 -40.6605 -19.6445 -18.6009 -11.2099  -9.5306
    -9.1507  -8.1415  -8.0386  -7.0794  -6.4046

     occupation numbers 
     1.0000   1.0000   1.0000   1.0000   1.0000   1.0000   1.0000   1.0000
     1.0000   1.0000   1.0000   1.0000   1.0000

          k = 0.0000 0.2749 0.0000 ( 14799 PWs)   bands (ev):

   -66.6662 -40.8515 -40.8303 -40.6749 -19.3751 -18.4923 -11.0940  -9.7796
    -9.5408  -8.3998  -7.7782  -7.2436  -6.6666

     occupation numbers 
     1.0000   1.0000   1.0000   1.0000   1.0000   1.0000   1.0000   1.0000
     1.0000   1.0000   1.0000   1.0000   1.0000

          k = 0.0000 0.3299 0.0000 ( 14811 PWs)   bands (ev):

   -66.6595 -40.8937 -40.8385 -40.6896 -19.0804 -18.3748 -11.1490  -9.9191
    -9.8840  -8.6373  -7.5108  -7.4357  -6.8959

     occupation numbers 
     1.0000   1.0000   1.0000   1.0000   1.0000   1.0000   1.0000   1.0000
     1.0000   1.0000   1.0000   1.0000   1.0000

          k = 0.0000 0.3849 0.0000 ( 14770 PWs)   bands (ev):

   -66.6533 -40.9523 -40.8263 -40.7032 -18.7831 -18.2584 -11.3488 -10.2668
    -9.9122  -8.8401  -7.6083  -7.2651  -6.9890

     occupation numbers 
     1.0000   1.0000   1.0000   1.0000   1.0000   1.0000   1.0000   1.0000
     1.0000   1.0000   1.0000   1.0000   1.0000

          k = 0.0000 0.4399 0.0000 ( 14726 PWs)   bands (ev):

   -66.6481 -41.0011 -40.8160 -40.7146 -18.5122 -18.1547 -11.5847 -10.5595
    -9.9705  -8.9989  -7.7399  -7.0668  -6.9166

     occupation numbers 
     1.0000   1.0000   1.0000   1.0000   1.0000   1.0000   1.0000   1.0000
     1.0000   1.0000   1.0000   1.0000   1.0000

          k = 0.0000 0.4949 0.0000 ( 14720 PWs)   bands (ev):

   -66.6443 -41.0361 -40.8086 -40.7228 -18.3018 -18.0762 -11.7811 -10.7721
   -10.0563  -9.1077  -7.8256  -6.9319  -6.7580

     occupation numbers 
     1.0000   1.0000   1.0000   1.0000   1.0000   1.0000   1.0000   1.0000
     1.0000   1.0000   1.0000   1.0000   1.0000

          k = 0.0000 0.5499 0.0000 ( 14732 PWs)   bands (ev):

   -66.6423 -41.0543 -40.8047 -40.7271 -18.1856 -18.0337 -11.8920 -10.8842
   -10.1167  -9.1629  -7.8673  -6.8649  -6.6365

     occupation numbers 
     1.0000   1.0000   1.0000   1.0000   1.0000   1.0000   1.0000   1.0000
     1.0000   1.0000   1.0000   1.0000   1.0000

          k = 0.0476 0.0825 0.0000 ( 14879 PWs)   bands (ev):

   -66.6839 -40.8862 -40.6578 -40.6357 -20.0768 -18.7765 -11.6107  -8.8249
    -8.4798  -8.2736  -7.6197  -7.1061  -6.0703

     occupation numbers 
     1.0000   1.0000   1.0000   1.0000   1.0000   1.0000   1.0000   1.0000
     1.0000   1.0000   1.0000   1.0000   1.0000

          k = 0.0476 0.1375 0.0000 ( 14866 PWs)   bands (ev):

   -66.6802 -40.8790 -40.6938 -40.6444 -19.9383 -18.7202 -11.4636  -9.0893
    -8.6059  -8.3388  -7.8503  -6.9738  -6.1516

     occupation numbers 
     1.0000   1.0000   1.0000   1.0000   1.0000   1.0000   1.0000   1.0000
     1.0000   1.0000   1.0000   1.0000   1.0000

          k = 0.0476 0.1925 0.0000 ( 14822 PWs)   bands (ev):

   -66.6750 -40.8689 -40.7434 -40.6565 -19.7396 -18.6394 -11.2781  -9.4033
    -8.9653  -8.1430  -8.1293  -6.9596  -6.3109

     occupation numbers 
     1.0000   1.0000   1.0000   1.0000   1.0000   1.0000   1.0000   1.0000
     1.0000   1.0000   1.0000   1.0000   1.0000

          k = 0.0476 0.2474 0.0000 ( 14793 PWs)   bands (ev):

   -66.6689 -40.8569 -40.8019 -40.6709 -19.4914 -18.5388 -11.1170  -9.6866
    -9.3418  -8.4075  -7.9134  -7.0677  -6.5459

     occupation numbers 
     1.0000   1.0000   1.0000   1.0000   1.0000   1.0000   1.0000   1.0000
     1.0000   1.0000   1.0000   1.0000   1.0000

          k = 0.0476 0.3024 0.0000 ( 14818 PWs)   bands (ev):

   -66.6623 -40.8640 -40.8440 -40.6863 -19.2087 -18.4252 -11.0839  -9.8486
    -9.7266  -8.6521  -7.6832  -7.2492  -6.7854

     occupation numbers 
     1.0000   1.0000   1.0000   1.0000   1.0000   1.0000   1.0000   1.0000
     1.0000   1.0000   1.0000   1.0000   1.0000

          k = 0.0476 0.3574 0.0000 ( 14790 PWs)   bands (ev):

   -66.6559 -40.9241 -40.8314 -40.7012 -18.9116 -18.3073 -11.2238 -10.0999
    -9.8855  -8.8492  -7.4979  -7.4472  -6.9058

     occupation numbers 
     1.0000   1.0000   1.0000   1.0000   1.0000   1.0000   1.0000   1.0000
     1.0000   1.0000   1.0000   1.0000   1.0000

          k = 0.0476 0.4124 0.0000 ( 14761 PWs)   bands (ev):

   -66.6502 -40.9771 -40.8202 -40.7145 -18.6257 -18.1960 -11.4481 -10.4334
    -9.9176  -8.9973  -7.6227  -7.3643  -6.8475

     occupation numbers 
     1.0000   1.0000   1.0000   1.0000   1.0000   1.0000   1.0000   1.0000
     1.0000   1.0000   1.0000   1.0000   1.0000

          k = 0.0476 0.4674 0.0000 ( 14735 PWs)   bands (ev):

   -66.6457 -41.0184 -40.8113 -40.7248 -18.3828 -18.1037 -11.6643 -10.6976
    -9.9965  -9.0996  -7.7551  -7.2358  -6.6997

     occupation numbers 
     1.0000   1.0000   1.0000   1.0000   1.0000   1.0000   1.0000   1.0000
     1.0000   1.0000   1.0000   1.0000   1.0000

          k = 0.0476 0.5224 0.0000 ( 14722 PWs)   bands (ev):

   -66.6428 -41.0446 -40.8057 -40.7314 -18.2173 -18.0422 -11.8169 -10.8674
   -10.0783  -9.1596  -7.8363  -7.1350  -6.5579

     occupation numbers 
     1.0000   1.0000   1.0000   1.0000   1.0000   1.0000   1.0000   1.0000
     1.0000   1.0000   1.0000   1.0000   1.0000

          k = 0.0476 0.5774 0.0000 ( 14726 PWs)   bands (ev):

   -66.6418 -41.0536 -40.8037 -40.7337 -18.1583 -18.0205 -11.8720 -10.9261
   -10.1118  -9.1794  -7.8634  -7.0986  -6.4983

     occupation numbers 
     1.0000   1.0000   1.0000   1.0000   1.0000   1.0000   1.0000   1.0000
     1.0000   1.0000   1.0000   1.0000   1.0000

          k = 0.0952 0.1650 0.0000 ( 14831 PWs)   bands (ev):

   -66.6759 -40.8705 -40.7341 -40.6560 -19.7718 -18.6524 -11.3026  -9.3540
    -8.8736  -8.1833  -8.1803  -6.8807  -6.2788

     occupation numbers 
     1.0000   1.0000   1.0000   1.0000   1.0000   1.0000   1.0000   1.0000
     1.0000   1.0000   1.0000   1.0000   1.0000

          k = 0.0952 0.2199 0.0000 ( 14819 PWs)   bands (ev):

   -66.6704 -40.8597 -40.7847 -40.6710 -19.5510 -18.5626 -11.1332  -9.6222
    -9.1712  -8.5371  -8.0018  -6.8852  -6.4755

     occupation numbers 
     1.0000   1.0000   1.0000   1.0000   1.0000   1.0000   1.0000   1.0000
     1.0000   1.0000   1.0000   1.0000   1.0000

          k = 0.0952 0.2749 0.0000 ( 14797 PWs)   bands (ev):

   -66.6641 -40.8476 -40.8411 -40.6881 -19.2887 -18.4562 -11.0404  -9.8052
    -9.5234  -8.8254  -7.8393  -7.0012  -6.6933

     occupation numbers 
     1.0000   1.0000   1.0000   1.0000   1.0000   1.0000   1.0000   1.0000
     1.0000   1.0000   1.0000   1.0000   1.0000

          k = 0.0952 0.3299 0.0000 ( 14799 PWs)   bands (ev):

   -66.6578 -40.8981 -40.8351 -40.7056 -19.0021 -18.3408 -11.1065  -9.9187
    -9.8492  -9.0115  -7.7531  -7.1911  -6.8202

     occupation numbers 
     1.0000   1.0000   1.0000   1.0000   1.0000   1.0000   1.0000   1.0000
     1.0000   1.0000   1.0000   1.0000   1.0000

          k = 0.0952 0.3849 0.0000 ( 14775 PWs)   bands (ev):

   -66.6518 -40.9509 -40.8235 -40.7220 -18.7137 -18.2261 -11.2898 -10.3035
    -9.8456  -9.1178  -7.7285  -7.4052  -6.7915

     occupation numbers 
     1.0000   1.0000   1.0000   1.0000   1.0000   1.0000   1.0000   1.0000
     1.0000   1.0000   1.0000   1.0000   1.0000

          k = 0.0952 0.4399 0.0000 ( 14747 PWs)   bands (ev):

   -66.6469 -40.9949 -40.8136 -40.7356 -18.4518 -18.1237 -11.4958 -10.6305
    -9.9000  -9.1704  -7.6754  -7.6033  -6.6655

     occupation numbers 
     1.0000   1.0000   1.0000   1.0000   1.0000   1.0000   1.0000   1.0000
     1.0000   1.0000   1.0000   1.0000   1.0000

          k = 0.0952 0.4949 0.0000 ( 14735 PWs)   bands (ev):

   -66.6432 -41.0264 -40.8066 -40.7455 -18.2493 -18.0460 -11.6639 -10.8670
    -9.9958  -9.1895  -7.7554  -7.5959  -6.5123

     occupation numbers 
     1.0000   1.0000   1.0000   1.0000   1.0000   1.0000   1.0000   1.0000
     1.0000   1.0000   1.0000   1.0000   1.0000

          k = 0.0952 0.5499 0.0000 ( 14720 PWs)   bands (ev):

   -66.6414 -41.0428 -40.8028 -40.7506 -18.1378 -18.0039 -11.7579 -10.9910
   -10.0650  -9.1930  -7.8384  -7.5438  -6.4026

     occupation numbers 
     1.0000   1.0000   1.0000   1.0000   1.0000   1.0000   1.0000   1.0000
     1.0000   1.0000   1.0000   1.0000   1.0000

          k = 0.1429 0.2474 0.0000 ( 14805 PWs)   bands (ev):

   -66.6648 -40.8488 -40.8321 -40.6898 -19.3159 -18.4666 -11.0252  -9.7857
    -9.4017  -8.9489  -7.8996  -6.8902  -6.6595

     occupation numbers 
     1.0000   1.0000   1.0000   1.0000   1.0000   1.0000   1.0000   1.0000
     1.0000   1.0000   1.0000   1.0000   1.0000

          k = 0.1429 0.3024 0.0000 ( 14800 PWs)   bands (ev):

   -66.6588 -40.8816 -40.8371 -40.7109 -19.0488 -18.3578 -11.0339  -9.8225
    -9.7562  -9.1908  -7.9079  -7.0032  -6.7765

     occupation numbers 
     1.0000   1.0000   1.0000   1.0000   1.0000   1.0000   1.0000   1.0000
     1.0000   1.0000   1.0000   1.0000   1.0000

          k = 0.1429 0.3574 0.0000 ( 14795 PWs)   bands (ev):

   -66.6529 -40.9291 -40.8255 -40.7319 -18.7692 -18.2443 -11.1588 -10.1808
    -9.7752  -9.2742  -8.0171  -7.1968  -6.7710

     occupation numbers 
     1.0000   1.0000   1.0000   1.0000   1.0000   1.0000   1.0000   1.0000
     1.0000   1.0000   1.0000   1.0000   1.0000

          k = 0.1429 0.4124 0.0000 ( 14779 PWs)   bands (ev):

   -66.6477 -40.9707 -40.8153 -40.7508 -18.5020 -18.1365 -11.3239 -10.5685
    -9.7759  -9.2811  -8.1020  -7.4239  -6.6738

     occupation numbers 
     1.0000   1.0000   1.0000   1.0000   1.0000   1.0000   1.0000   1.0000
     1.0000   1.0000   1.0000   1.0000   1.0000

          k = 0.1429 0.4674 0.0000 ( 14755 PWs)   bands (ev):

   -66.6436 -41.0031 -40.8072 -40.7657 -18.2767 -18.0466 -11.4713 -10.8720
    -9.8677  -9.2473  -8.1041  -7.6384  -6.5244

     occupation numbers 
     1.0000   1.0000   1.0000   1.0000   1.0000   1.0000   1.0000   1.0000
     1.0000   1.0000   1.0000   1.0000   1.0000

          k = 0.1429 0.5224 0.0000 ( 14748 PWs)   bands (ev):

   -66.6410 -41.0237 -40.8021 -40.7752 -18.1245 -17.9865 -11.5708 -11.0648
    -9.9762  -9.2034  -8.0739  -7.7960  -6.3754

     occupation numbers 
     1.0000   1.0000   1.0000   1.0000   1.0000   1.0000   1.0000   1.0000
     1.0000   1.0000   1.0000   1.0000   1.0000

          k = 0.1429 0.5774 0.0000 ( 14726 PWs)   bands (ev):

   -66.6401 -41.0307 -40.8003 -40.7785 -18.0705 -17.9653 -11.6058 -11.1309
   -10.0218  -9.1830  -8.0596  -7.8551  -6.3102

     occupation numbers 
     1.0000   1.0000   1.0000   1.0000   1.0000   1.0000   1.0000   1.0000
     1.0000   1.0000   1.0000   1.0000   1.0000

          k = 0.1905 0.3299 0.0000 ( 14785 PWs)   bands (ev):

   -66.6533 -40.9203 -40.8263 -40.7366 -18.7882 -18.2503 -11.1071 -10.1223
    -9.7435  -9.3501  -8.1302  -7.1109  -6.7668

     occupation numbers 
     1.0000   1.0000   1.0000   1.0000   1.0000   1.0000   1.0000   1.0000
     1.0000   1.0000   1.0000   1.0000   1.0000

          k = 0.1905 0.3849 0.0000 ( 14761 PWs)   bands (ev):

   -66.6481 -40.9544 -40.8162 -40.7625 -18.5283 -18.1427 -11.2123 -10.5266
    -9.6656  -9.3623  -8.3919  -7.3027  -6.6892

     occupation numbers 
     1.0000   1.0000   1.0000   1.0000   1.0000   1.0000   1.0000   1.0000
     1.0000   1.0000   1.0000   1.0000   1.0000

          k = 0.1905 0.4399 0.0000 ( 14749 PWs)   bands (ev):

   -66.6438 -40.9818 -40.8077 -40.7853 -18.2952 -18.0460 -11.3036 -10.8758
    -9.7003  -9.3027  -8.5592  -7.5324  -6.5529

     occupation numbers 
     1.0000   1.0000   1.0000   1.0000   1.0000   1.0000   1.0000   1.0000
     1.0000   1.0000   1.0000   1.0000   1.0000

          k = 0.1905 0.4949 0.0000 ( 14738 PWs)   bands (ev):

   -66.6407 -41.0008 -40.8023 -40.8016 -18.1171 -17.9721 -11.3606 -11.1280
    -9.8378  -9.2137  -8.6073  -7.7460  -6.3809

     occupation numbers 
     1.0000   1.0000   1.0000   1.0000   1.0000   1.0000   1.0000   1.0000
     1.0000   1.0000   1.0000   1.0000   1.0000

          k = 0.1905 0.5499 0.0000 ( 14758 PWs)   bands (ev):

   -66.6391 -41.0106 -40.8114 -40.7984 -18.0202 -17.9318 -11.3843 -11.2599
    -9.9514  -9.1440  -8.6093  -7.8816  -6.2499

     occupation numbers 
     1.0000   1.0000   1.0000   1.0000   1.0000   1.0000   1.0000   1.0000
     1.0000   1.0000   1.0000   1.0000   1.0000

          k = 0.2381 0.4124 0.0000 ( 14762 PWs)   bands (ev):

   -66.6439 -40.9725 -40.8078 -40.7940 -18.3017 -18.0456 -11.2357 -10.8770
    -9.5902  -9.3252  -8.7780  -7.4894  -6.5663

     occupation numbers 
     1.0000   1.0000   1.0000   1.0000   1.0000   1.0000   1.0000   1.0000
     1.0000   1.0000   1.0000   1.0000   1.0000

          k = 0.2381 0.4674 0.0000 ( 14743 PWs)   bands (ev):

   -66.6405 -40.9833 -40.8221 -40.8013 -18.1141 -17.9638 -11.2134 -11.1641
    -9.6529  -9.2212  -9.0350  -7.7108  -6.3911

     occupation numbers 
     1.0000   1.0000   1.0000   1.0000   1.0000   1.0000   1.0000   1.0000
     1.0000   1.0000   1.0000   1.0000   1.0000

          k = 0.2381 0.5224 0.0000 ( 14764 PWs)   bands (ev):

   -66.6384 -40.9880 -40.8421 -40.7971 -17.9894 -17.9089 -11.3500 -11.1589
    -9.8430  -9.1073  -9.1045  -7.9043  -6.2104

     occupation numbers 
     1.0000   1.0000   1.0000   1.0000   1.0000   1.0000   1.0000   1.0000
     1.0000   1.0000   1.0000   1.0000   1.0000

          k = 0.2381 0.5774 0.0000 ( 14780 PWs)   bands (ev):

   -66.6377 -40.9892 -40.8495 -40.7957 -17.9457 -17.8894 -11.4142 -11.1263
    -9.9421  -9.1157  -9.0490  -7.9865  -6.1282

     occupation numbers 
     1.0000   1.0000   1.0000   1.0000   1.0000   1.0000   1.0000   1.0000
     1.0000   1.0000   1.0000   1.0000   1.0000

          k = 0.2857 0.4949 0.0000 ( 14734 PWs)   bands (ev):

   -66.6382 -40.9765 -40.8565 -40.7967 -17.9791 -17.9007 -11.3822 -11.0550
    -9.7317  -9.3786  -9.0883  -7.9130  -6.1958

     occupation numbers 
     1.0000   1.0000   1.0000   1.0000   1.0000   1.0000   1.0000   1.0000
     1.0000   1.0000   1.0000   1.0000   1.0000

          k = 0.2857 0.5499 0.0000 ( 14738 PWs)   bands (ev):

   -66.6370 -40.9672 -40.8802 -40.7943 -17.9070 -17.8661 -11.4987 -10.8843
    -9.9753  -9.4505  -8.9739  -8.0642  -6.0439

     occupation numbers 
     1.0000   1.0000   1.0000   1.0000   1.0000   1.0000   1.0000   1.0000
     1.0000   1.0000   1.0000   1.0000   1.0000

          k = 0.3333 0.5774 0.0000 ( 14760 PWs)   bands (ev):

   -66.6365 -40.9515 -40.9019 -40.7933 -17.8785 -17.8510 -11.5509 -10.6848
   -10.1609  -9.5345  -8.9084  -8.1397  -5.9683

     occupation numbers 
     1.0000   1.0000   1.0000   1.0000   1.0000   1.0000   1.0000   1.0000
     1.0000   1.0000   1.0000   1.0000   1.0000

     highest occupied level (ev):    -5.9683

!    total energy              =    -184.83183022 Ry
     estimated scf accuracy    <          7.3E-16 Ry

     convergence has been achieved in  26 iterations

     Forces acting on atoms (cartesian axes, Ry/au):

     atom    1 type  1   force =     0.00000000    0.00000000    0.00000000
     atom    2 type  2   force =     0.00000000   -0.00000000   -0.00002203
     atom    3 type  2   force =    -0.00000000   -0.00000000    0.00002203
     The non-local contrib.  to forces
     atom    1 type  1   force =    -0.00000000   -0.00000000    0.00000000
     atom    2 type  2   force =     0.00000000   -0.00000000   -0.25593631
     atom    3 type  2   force =     0.00000000   -0.00000000    0.25593631
     The ionic contribution  to forces
     atom    1 type  1   force =     0.00000001    0.00000097    0.00000000
     atom    2 type  2   force =    -0.00000000   -0.00000048   46.86204902
     atom    3 type  2   force =    -0.00000000   -0.00000048  -46.86204902
     The local contribution  to forces
     atom    1 type  1   force =     0.00000000    0.00002380    0.00000000
     atom    2 type  2   force =    -0.00000001    0.00000001  -46.61032305
     atom    3 type  2   force =    -0.00000001    0.00000001   46.61032305
     The core correction contribution to forces
     atom    1 type  1   force =    -0.00000000   -0.00000040   -0.00000000
     atom    2 type  2   force =     0.00000000   -0.00000000    0.00418827
     atom    3 type  2   force =     0.00000000   -0.00000000   -0.00418827
     The Hubbard contrib.    to forces
     atom    1 type  1   force =     0.00000000    0.00000000    0.00000000
     atom    2 type  2   force =     0.00000000    0.00000000    0.00000000
     atom    3 type  2   force =     0.00000000    0.00000000    0.00000000
     The SCF correction term to forces
     atom    1 type  1   force =    -0.00000000   -0.00000000    0.00000000
     atom    2 type  2   force =    -0.00000000    0.00000000    0.00000004
     atom    3 type  2   force =    -0.00000000    0.00000000   -0.00000004

     Total force =     0.000031     Total SCF correction =     0.000000

     Entering Dynamics:    iteration =     7

     <vel(dt)|acc(dt)> =   1.00000000

ATOMIC_POSITIONS (crystal)
Mo               0.3333333000        0.6666666000        0.5000000000    0   0   0
S                0.6666666670        0.3333333330        0.5735809425    0   0   1
S                0.6666666670        0.3333333330        0.4264190575    0   0   1



     Writing config-only to output data dir ./tmp/MoS2.save/ :
     XML data file
     NEW-OLD atomic charge density approx. for the potential

     total cpu time spent up to now is      330.3 secs

     per-process dynamical memory:    64.5 Mb

     Self-consistent Calculation

     iteration #  1     ecut=    80.00 Ry     beta= 0.20
     Davidson diagonalization with overlap

---- Real-time Memory Report at c_bands before calling an iterative solver
            87 MiB given to the printing process from OS
            63 MiB allocation reported by mallinfo(arena+hblkhd)
        244292 MiB available memory on the node where the printing process lives
------------------
     ethr =  1.00E-06,  avg # of iterations =  1.0

     Threshold (ethr) on eigenvalues was too large:
     Diagonalizing with lowered threshold

     Davidson diagonalization with overlap

---- Real-time Memory Report at c_bands before calling an iterative solver
            87 MiB given to the printing process from OS
            63 MiB allocation reported by mallinfo(arena+hblkhd)
        244292 MiB available memory on the node where the printing process lives
------------------
     ethr =  2.37E-11,  avg # of iterations =  4.9

     total cpu time spent up to now is      332.7 secs

     total energy              =    -184.83183022 Ry
     estimated scf accuracy    <          1.8E-10 Ry

     iteration #  2     ecut=    80.00 Ry     beta= 0.20
     Davidson diagonalization with overlap

---- Real-time Memory Report at c_bands before calling an iterative solver
            87 MiB given to the printing process from OS
            63 MiB allocation reported by mallinfo(arena+hblkhd)
        244292 MiB available memory on the node where the printing process lives
------------------
     ethr =  6.87E-13,  avg # of iterations =  6.8

     total cpu time spent up to now is      334.3 secs

     total energy              =    -184.83183022 Ry
     estimated scf accuracy    <          2.9E-10 Ry

     iteration #  3     ecut=    80.00 Ry     beta= 0.20
     Davidson diagonalization with overlap

---- Real-time Memory Report at c_bands before calling an iterative solver
            87 MiB given to the printing process from OS
            63 MiB allocation reported by mallinfo(arena+hblkhd)
        244292 MiB available memory on the node where the printing process lives
------------------
     ethr =  6.87E-13,  avg # of iterations =  1.0

     total cpu time spent up to now is      335.2 secs

     total energy              =    -184.83183022 Ry
     estimated scf accuracy    <          2.7E-10 Ry

     iteration #  4     ecut=    80.00 Ry     beta= 0.20
     Davidson diagonalization with overlap

---- Real-time Memory Report at c_bands before calling an iterative solver
            87 MiB given to the printing process from OS
            63 MiB allocation reported by mallinfo(arena+hblkhd)
        244292 MiB available memory on the node where the printing process lives
------------------
     ethr =  6.87E-13,  avg # of iterations =  6.4

     total cpu time spent up to now is      337.0 secs

     total energy              =    -184.83183022 Ry
     estimated scf accuracy    <          1.5E-09 Ry

     iteration #  5     ecut=    80.00 Ry     beta= 0.20
     Davidson diagonalization with overlap

---- Real-time Memory Report at c_bands before calling an iterative solver
            87 MiB given to the printing process from OS
            63 MiB allocation reported by mallinfo(arena+hblkhd)
        244291 MiB available memory on the node where the printing process lives
------------------
     ethr =  6.87E-13,  avg # of iterations =  1.9

     total cpu time spent up to now is      338.0 secs

     total energy              =    -184.83183022 Ry
     estimated scf accuracy    <          1.0E-09 Ry

     iteration #  6     ecut=    80.00 Ry     beta= 0.20
     Davidson diagonalization with overlap

---- Real-time Memory Report at c_bands before calling an iterative solver
            87 MiB given to the printing process from OS
            63 MiB allocation reported by mallinfo(arena+hblkhd)
        244291 MiB available memory on the node where the printing process lives
------------------
     ethr =  6.87E-13,  avg # of iterations =  6.3

     total cpu time spent up to now is      339.7 secs

     total energy              =    -184.83183022 Ry
     estimated scf accuracy    <          1.2E-10 Ry

     iteration #  7     ecut=    80.00 Ry     beta= 0.20
     Davidson diagonalization with overlap

---- Real-time Memory Report at c_bands before calling an iterative solver
            87 MiB given to the printing process from OS
            63 MiB allocation reported by mallinfo(arena+hblkhd)
        244291 MiB available memory on the node where the printing process lives
------------------
     ethr =  4.55E-13,  avg # of iterations =  2.6

     total cpu time spent up to now is      340.8 secs

     total energy              =    -184.83183022 Ry
     estimated scf accuracy    <          1.8E-11 Ry

     iteration #  8     ecut=    80.00 Ry     beta= 0.20
     Davidson diagonalization with overlap

---- Real-time Memory Report at c_bands before calling an iterative solver
            87 MiB given to the printing process from OS
            63 MiB allocation reported by mallinfo(arena+hblkhd)
        244293 MiB available memory on the node where the printing process lives
------------------
     ethr =  1.00E-13,  avg # of iterations =  5.2

     total cpu time spent up to now is      342.4 secs

     total energy              =    -184.83183022 Ry
     estimated scf accuracy    <          4.4E-11 Ry

     iteration #  9     ecut=    80.00 Ry     beta= 0.20
     Davidson diagonalization with overlap

---- Real-time Memory Report at c_bands before calling an iterative solver
            87 MiB given to the printing process from OS
            63 MiB allocation reported by mallinfo(arena+hblkhd)
        244293 MiB available memory on the node where the printing process lives
------------------
     ethr =  1.00E-13,  avg # of iterations =  1.0

     total cpu time spent up to now is      343.3 secs

     total energy              =    -184.83183022 Ry
     estimated scf accuracy    <          3.4E-11 Ry

     iteration # 10     ecut=    80.00 Ry     beta= 0.20
     Davidson diagonalization with overlap

---- Real-time Memory Report at c_bands before calling an iterative solver
            87 MiB given to the printing process from OS
            63 MiB allocation reported by mallinfo(arena+hblkhd)
        244293 MiB available memory on the node where the printing process lives
------------------
     ethr =  1.00E-13,  avg # of iterations =  4.3

     total cpu time spent up to now is      344.6 secs

     total energy              =    -184.83183022 Ry
     estimated scf accuracy    <          3.1E-12 Ry

     iteration # 11     ecut=    80.00 Ry     beta= 0.20
     Davidson diagonalization with overlap

---- Real-time Memory Report at c_bands before calling an iterative solver
            87 MiB given to the printing process from OS
            63 MiB allocation reported by mallinfo(arena+hblkhd)
        244293 MiB available memory on the node where the printing process lives
------------------
     ethr =  1.00E-13,  avg # of iterations =  1.0

     total cpu time spent up to now is      345.5 secs

     total energy              =    -184.83183022 Ry
     estimated scf accuracy    <          2.3E-12 Ry

     iteration # 12     ecut=    80.00 Ry     beta= 0.20
     Davidson diagonalization with overlap

---- Real-time Memory Report at c_bands before calling an iterative solver
            87 MiB given to the printing process from OS
            63 MiB allocation reported by mallinfo(arena+hblkhd)
        244293 MiB available memory on the node where the printing process lives
------------------
     ethr =  1.00E-13,  avg # of iterations =  1.4

     total cpu time spent up to now is      346.4 secs

     total energy              =    -184.83183022 Ry
     estimated scf accuracy    <          1.2E-14 Ry

     iteration # 13     ecut=    80.00 Ry     beta= 0.20
     Davidson diagonalization with overlap

---- Real-time Memory Report at c_bands before calling an iterative solver
            87 MiB given to the printing process from OS
            63 MiB allocation reported by mallinfo(arena+hblkhd)
        244293 MiB available memory on the node where the printing process lives
------------------
     ethr =  1.00E-13,  avg # of iterations =  1.0

     total cpu time spent up to now is      347.3 secs

     total energy              =    -184.83183022 Ry
     estimated scf accuracy    <          8.7E-14 Ry

     iteration # 14     ecut=    80.00 Ry     beta= 0.20
     Davidson diagonalization with overlap

---- Real-time Memory Report at c_bands before calling an iterative solver
            87 MiB given to the printing process from OS
            63 MiB allocation reported by mallinfo(arena+hblkhd)
        244293 MiB available memory on the node where the printing process lives
------------------
     ethr =  1.00E-13,  avg # of iterations =  1.0

     total cpu time spent up to now is      348.2 secs

     total energy              =    -184.83183022 Ry
     estimated scf accuracy    <          1.9E-13 Ry

     iteration # 15     ecut=    80.00 Ry     beta= 0.20
     Davidson diagonalization with overlap

---- Real-time Memory Report at c_bands before calling an iterative solver
            87 MiB given to the printing process from OS
            63 MiB allocation reported by mallinfo(arena+hblkhd)
        244293 MiB available memory on the node where the printing process lives
------------------
     ethr =  1.00E-13,  avg # of iterations =  1.0

     total cpu time spent up to now is      349.1 secs

     total energy              =    -184.83183022 Ry
     estimated scf accuracy    <          2.3E-13 Ry

     iteration # 16     ecut=    80.00 Ry     beta= 0.20
     Davidson diagonalization with overlap

---- Real-time Memory Report at c_bands before calling an iterative solver
            87 MiB given to the printing process from OS
            63 MiB allocation reported by mallinfo(arena+hblkhd)
        244293 MiB available memory on the node where the printing process lives
------------------
     ethr =  1.00E-13,  avg # of iterations =  1.0

     total cpu time spent up to now is      350.0 secs

     total energy              =    -184.83183022 Ry
     estimated scf accuracy    <          2.6E-13 Ry

     iteration # 17     ecut=    80.00 Ry     beta= 0.20
     Davidson diagonalization with overlap

---- Real-time Memory Report at c_bands before calling an iterative solver
            87 MiB given to the printing process from OS
            63 MiB allocation reported by mallinfo(arena+hblkhd)
        244294 MiB available memory on the node where the printing process lives
------------------
     ethr =  1.00E-13,  avg # of iterations =  1.0

     total cpu time spent up to now is      350.9 secs

     total energy              =    -184.83183022 Ry
     estimated scf accuracy    <          2.4E-13 Ry

     iteration # 18     ecut=    80.00 Ry     beta= 0.20
     Davidson diagonalization with overlap

---- Real-time Memory Report at c_bands before calling an iterative solver
            87 MiB given to the printing process from OS
            63 MiB allocation reported by mallinfo(arena+hblkhd)
        244294 MiB available memory on the node where the printing process lives
------------------
     ethr =  1.00E-13,  avg # of iterations =  1.0

     total cpu time spent up to now is      351.9 secs

     total energy              =    -184.83183022 Ry
     estimated scf accuracy    <          1.7E-13 Ry

     iteration # 19     ecut=    80.00 Ry     beta= 0.20
     Davidson diagonalization with overlap

---- Real-time Memory Report at c_bands before calling an iterative solver
            87 MiB given to the printing process from OS
            63 MiB allocation reported by mallinfo(arena+hblkhd)
        244294 MiB available memory on the node where the printing process lives
------------------
     ethr =  1.00E-13,  avg # of iterations =  1.0

     total cpu time spent up to now is      352.8 secs

     total energy              =    -184.83183022 Ry
     estimated scf accuracy    <          2.8E-14 Ry

     iteration # 20     ecut=    80.00 Ry     beta= 0.20
     Davidson diagonalization with overlap

---- Real-time Memory Report at c_bands before calling an iterative solver
            87 MiB given to the printing process from OS
            63 MiB allocation reported by mallinfo(arena+hblkhd)
        244294 MiB available memory on the node where the printing process lives
------------------
     ethr =  1.00E-13,  avg # of iterations =  1.0

     total cpu time spent up to now is      353.7 secs

     total energy              =    -184.83183022 Ry
     estimated scf accuracy    <          6.8E-15 Ry

     iteration # 21     ecut=    80.00 Ry     beta= 0.20
     Davidson diagonalization with overlap

---- Real-time Memory Report at c_bands before calling an iterative solver
            87 MiB given to the printing process from OS
            63 MiB allocation reported by mallinfo(arena+hblkhd)
        244269 MiB available memory on the node where the printing process lives
------------------
     ethr =  1.00E-13,  avg # of iterations =  1.0

     total cpu time spent up to now is      354.6 secs

     total energy              =    -184.83183022 Ry
     estimated scf accuracy    <          2.3E-15 Ry

     iteration # 22     ecut=    80.00 Ry     beta= 0.20
     Davidson diagonalization with overlap

---- Real-time Memory Report at c_bands before calling an iterative solver
            87 MiB given to the printing process from OS
            63 MiB allocation reported by mallinfo(arena+hblkhd)
        244293 MiB available memory on the node where the printing process lives
------------------
     ethr =  1.00E-13,  avg # of iterations =  1.0

     total cpu time spent up to now is      355.5 secs

     total energy              =    -184.83183022 Ry
     estimated scf accuracy    <          2.8E-15 Ry

     iteration # 23     ecut=    80.00 Ry     beta= 0.20
     Davidson diagonalization with overlap

---- Real-time Memory Report at c_bands before calling an iterative solver
            87 MiB given to the printing process from OS
            63 MiB allocation reported by mallinfo(arena+hblkhd)
        244294 MiB available memory on the node where the printing process lives
------------------
     ethr =  1.00E-13,  avg # of iterations =  1.0

     total cpu time spent up to now is      356.4 secs

     total energy              =    -184.83183022 Ry
     estimated scf accuracy    <          1.6E-15 Ry

     iteration # 24     ecut=    80.00 Ry     beta= 0.20
     Davidson diagonalization with overlap

---- Real-time Memory Report at c_bands before calling an iterative solver
            87 MiB given to the printing process from OS
            63 MiB allocation reported by mallinfo(arena+hblkhd)
        244294 MiB available memory on the node where the printing process lives
------------------
     ethr =  1.00E-13,  avg # of iterations =  1.0

     total cpu time spent up to now is      357.3 secs

     total energy              =    -184.83183022 Ry
     estimated scf accuracy    <          2.0E-15 Ry

     iteration # 25     ecut=    80.00 Ry     beta= 0.20
     Davidson diagonalization with overlap

---- Real-time Memory Report at c_bands before calling an iterative solver
            87 MiB given to the printing process from OS
            63 MiB allocation reported by mallinfo(arena+hblkhd)
        244294 MiB available memory on the node where the printing process lives
------------------
     ethr =  1.00E-13,  avg # of iterations =  1.0

     total cpu time spent up to now is      358.2 secs

     total energy              =    -184.83183022 Ry
     estimated scf accuracy    <          3.6E-15 Ry

     iteration # 26     ecut=    80.00 Ry     beta= 0.20
     Davidson diagonalization with overlap

---- Real-time Memory Report at c_bands before calling an iterative solver
            87 MiB given to the printing process from OS
            63 MiB allocation reported by mallinfo(arena+hblkhd)
        244294 MiB available memory on the node where the printing process lives
------------------
     ethr =  1.00E-13,  avg # of iterations =  1.0

     total cpu time spent up to now is      359.1 secs

     total energy              =    -184.83183022 Ry
     estimated scf accuracy    <          1.5E-13 Ry

     iteration # 27     ecut=    80.00 Ry     beta= 0.20
     Davidson diagonalization with overlap

---- Real-time Memory Report at c_bands before calling an iterative solver
            87 MiB given to the printing process from OS
            63 MiB allocation reported by mallinfo(arena+hblkhd)
        244294 MiB available memory on the node where the printing process lives
------------------
     ethr =  1.00E-13,  avg # of iterations =  1.0

     total cpu time spent up to now is      360.0 secs

     total energy              =    -184.83183022 Ry
     estimated scf accuracy    <          1.0E-13 Ry

     iteration # 28     ecut=    80.00 Ry     beta= 0.20
     Davidson diagonalization with overlap

---- Real-time Memory Report at c_bands before calling an iterative solver
            87 MiB given to the printing process from OS
            63 MiB allocation reported by mallinfo(arena+hblkhd)
        244294 MiB available memory on the node where the printing process lives
------------------
     ethr =  1.00E-13,  avg # of iterations =  1.0

     total cpu time spent up to now is      360.9 secs

     total energy              =    -184.83183022 Ry
     estimated scf accuracy    <          1.3E-14 Ry

     iteration # 29     ecut=    80.00 Ry     beta= 0.20
     Davidson diagonalization with overlap

---- Real-time Memory Report at c_bands before calling an iterative solver
            87 MiB given to the printing process from OS
            63 MiB allocation reported by mallinfo(arena+hblkhd)
        244294 MiB available memory on the node where the printing process lives
------------------
     ethr =  1.00E-13,  avg # of iterations =  1.0

     total cpu time spent up to now is      361.8 secs

     total energy              =    -184.83183022 Ry
     estimated scf accuracy    <          1.2E-14 Ry

     iteration # 30     ecut=    80.00 Ry     beta= 0.20
     Davidson diagonalization with overlap

---- Real-time Memory Report at c_bands before calling an iterative solver
            87 MiB given to the printing process from OS
            63 MiB allocation reported by mallinfo(arena+hblkhd)
        244294 MiB available memory on the node where the printing process lives
------------------
     ethr =  1.00E-13,  avg # of iterations =  1.0

     total cpu time spent up to now is      362.7 secs

     total energy              =    -184.83183022 Ry
     estimated scf accuracy    <          2.0E-15 Ry

     iteration # 31     ecut=    80.00 Ry     beta= 0.20
     Davidson diagonalization with overlap

---- Real-time Memory Report at c_bands before calling an iterative solver
            87 MiB given to the printing process from OS
            63 MiB allocation reported by mallinfo(arena+hblkhd)
        244294 MiB available memory on the node where the printing process lives
------------------
     ethr =  1.00E-13,  avg # of iterations =  1.0

     total cpu time spent up to now is      363.6 secs

     total energy              =    -184.83183022 Ry
     estimated scf accuracy    <          8.6E-15 Ry

     iteration # 32     ecut=    80.00 Ry     beta= 0.20
     Davidson diagonalization with overlap

---- Real-time Memory Report at c_bands before calling an iterative solver
            87 MiB given to the printing process from OS
            63 MiB allocation reported by mallinfo(arena+hblkhd)
        244294 MiB available memory on the node where the printing process lives
------------------
     ethr =  1.00E-13,  avg # of iterations =  1.0

     total cpu time spent up to now is      364.5 secs

     total energy              =    -184.83183022 Ry
     estimated scf accuracy    <          4.5E-15 Ry

     iteration # 33     ecut=    80.00 Ry     beta= 0.20
     Davidson diagonalization with overlap

---- Real-time Memory Report at c_bands before calling an iterative solver
            87 MiB given to the printing process from OS
            63 MiB allocation reported by mallinfo(arena+hblkhd)
        244294 MiB available memory on the node where the printing process lives
------------------
     ethr =  1.00E-13,  avg # of iterations =  1.0

     total cpu time spent up to now is      365.4 secs

     total energy              =    -184.83183022 Ry
     estimated scf accuracy    <          4.6E-15 Ry

     iteration # 34     ecut=    80.00 Ry     beta= 0.20
     Davidson diagonalization with overlap

---- Real-time Memory Report at c_bands before calling an iterative solver
            87 MiB given to the printing process from OS
            63 MiB allocation reported by mallinfo(arena+hblkhd)
        244294 MiB available memory on the node where the printing process lives
------------------
     ethr =  1.00E-13,  avg # of iterations =  1.0

     total cpu time spent up to now is      366.4 secs

     total energy              =    -184.83183022 Ry
     estimated scf accuracy    <          1.8E-15 Ry

     iteration # 35     ecut=    80.00 Ry     beta= 0.20
     Davidson diagonalization with overlap

---- Real-time Memory Report at c_bands before calling an iterative solver
            87 MiB given to the printing process from OS
            63 MiB allocation reported by mallinfo(arena+hblkhd)
        244294 MiB available memory on the node where the printing process lives
------------------
     ethr =  1.00E-13,  avg # of iterations =  1.0

     total cpu time spent up to now is      367.3 secs

     total energy              =    -184.83183022 Ry
     estimated scf accuracy    <          1.8E-15 Ry

     iteration # 36     ecut=    80.00 Ry     beta= 0.20
     Davidson diagonalization with overlap

---- Real-time Memory Report at c_bands before calling an iterative solver
            87 MiB given to the printing process from OS
            63 MiB allocation reported by mallinfo(arena+hblkhd)
        244294 MiB available memory on the node where the printing process lives
------------------
     ethr =  1.00E-13,  avg # of iterations =  1.0

     total cpu time spent up to now is      368.2 secs

     End of self-consistent calculation

          k = 0.0000 0.0000 0.0000 ( 14903 PWs)   bands (ev):

   -66.6868 -40.8920 -40.6291 -40.6291 -20.1838 -18.8200 -11.7313  -8.5915
    -8.5915  -7.8013  -7.4349  -7.4349  -6.0269

     occupation numbers 
     1.0000   1.0000   1.0000   1.0000   1.0000   1.0000   1.0000   1.0000
     1.0000   1.0000   1.0000   1.0000   1.0000

          k = 0.0000 0.0550 0.0000 ( 14887 PWs)   bands (ev):

   -66.6858 -40.8900 -40.6389 -40.6313 -20.1479 -18.8054 -11.6903  -8.6732
    -8.5537  -8.0203  -7.4938  -7.2669  -6.0395

     occupation numbers 
     1.0000   1.0000   1.0000   1.0000   1.0000   1.0000   1.0000   1.0000
     1.0000   1.0000   1.0000   1.0000   1.0000

          k = 0.0000 0.1100 0.0000 ( 14865 PWs)   bands (ev):

   -66.6829 -40.8844 -40.6673 -40.6377 -20.0419 -18.7623 -11.5727  -8.8966
    -8.4429  -8.3780  -7.6552  -7.0773  -6.0884

     occupation numbers 
     1.0000   1.0000   1.0000   1.0000   1.0000   1.0000   1.0000   1.0000
     1.0000   1.0000   1.0000   1.0000   1.0000

          k = 0.0000 0.1650 0.0000 ( 14863 PWs)   bands (ev):

   -66.6784 -40.8756 -40.7117 -40.6478 -19.8711 -18.6928 -11.3982  -9.2066
    -8.7604  -8.2668  -7.8836  -7.0090  -6.2024

     occupation numbers 
     1.0000   1.0000   1.0000   1.0000   1.0000   1.0000   1.0000   1.0000
     1.0000   1.0000   1.0000   1.0000   1.0000

          k = 0.0000 0.2199 0.0000 ( 14819 PWs)   bands (ev):

   -66.6727 -40.8643 -40.7678 -40.6606 -19.6446 -18.6010 -11.2100  -9.5308
    -9.1508  -8.1417  -8.0388  -7.0794  -6.4046

     occupation numbers 
     1.0000   1.0000   1.0000   1.0000   1.0000   1.0000   1.0000   1.0000
     1.0000   1.0000   1.0000   1.0000   1.0000

          k = 0.0000 0.2749 0.0000 ( 14799 PWs)   bands (ev):

   -66.6662 -40.8516 -40.8304 -40.6749 -19.3753 -18.4924 -11.0942  -9.7798
    -9.5409  -8.4000  -7.7784  -7.2436  -6.6666

     occupation numbers 
     1.0000   1.0000   1.0000   1.0000   1.0000   1.0000   1.0000   1.0000
     1.0000   1.0000   1.0000   1.0000   1.0000

          k = 0.0000 0.3299 0.0000 ( 14811 PWs)   bands (ev):

   -66.6595 -40.8937 -40.8385 -40.6896 -19.0805 -18.3749 -11.1492  -9.9192
    -9.8841  -8.6375  -7.5110  -7.4356  -6.8959

     occupation numbers 
     1.0000   1.0000   1.0000   1.0000   1.0000   1.0000   1.0000   1.0000
     1.0000   1.0000   1.0000   1.0000   1.0000

          k = 0.0000 0.3849 0.0000 ( 14770 PWs)   bands (ev):

   -66.6533 -40.9523 -40.8263 -40.7032 -18.7832 -18.2584 -11.3489 -10.2669
    -9.9123  -8.8403  -7.6082  -7.2653  -6.9891

     occupation numbers 
     1.0000   1.0000   1.0000   1.0000   1.0000   1.0000   1.0000   1.0000
     1.0000   1.0000   1.0000   1.0000   1.0000

          k = 0.0000 0.4399 0.0000 ( 14726 PWs)   bands (ev):

   -66.6481 -41.0011 -40.8160 -40.7146 -18.5123 -18.1548 -11.5849 -10.5596
    -9.9706  -8.9991  -7.7399  -7.0670  -6.9166

     occupation numbers 
     1.0000   1.0000   1.0000   1.0000   1.0000   1.0000   1.0000   1.0000
     1.0000   1.0000   1.0000   1.0000   1.0000

          k = 0.0000 0.4949 0.0000 ( 14720 PWs)   bands (ev):

   -66.6443 -41.0361 -40.8086 -40.7228 -18.3020 -18.0763 -11.7812 -10.7722
   -10.0564  -9.1079  -7.8256  -6.9320  -6.7581

     occupation numbers 
     1.0000   1.0000   1.0000   1.0000   1.0000   1.0000   1.0000   1.0000
     1.0000   1.0000   1.0000   1.0000   1.0000

          k = 0.0000 0.5499 0.0000 ( 14732 PWs)   bands (ev):

   -66.6423 -41.0543 -40.8047 -40.7271 -18.1858 -18.0338 -11.8921 -10.8842
   -10.1168  -9.1631  -7.8672  -6.8650  -6.6366

     occupation numbers 
     1.0000   1.0000   1.0000   1.0000   1.0000   1.0000   1.0000   1.0000
     1.0000   1.0000   1.0000   1.0000   1.0000

          k = 0.0476 0.0825 0.0000 ( 14879 PWs)   bands (ev):

   -66.6839 -40.8863 -40.6578 -40.6358 -20.0769 -18.7765 -11.6109  -8.8251
    -8.4800  -8.2737  -7.6199  -7.1061  -6.0702

     occupation numbers 
     1.0000   1.0000   1.0000   1.0000   1.0000   1.0000   1.0000   1.0000
     1.0000   1.0000   1.0000   1.0000   1.0000

          k = 0.0476 0.1375 0.0000 ( 14866 PWs)   bands (ev):

   -66.6802 -40.8790 -40.6938 -40.6445 -19.9385 -18.7202 -11.4637  -9.0895
    -8.6060  -8.3390  -7.8505  -6.9739  -6.1515

     occupation numbers 
     1.0000   1.0000   1.0000   1.0000   1.0000   1.0000   1.0000   1.0000
     1.0000   1.0000   1.0000   1.0000   1.0000

          k = 0.0476 0.1925 0.0000 ( 14822 PWs)   bands (ev):

   -66.6751 -40.8690 -40.7434 -40.6566 -19.7397 -18.6394 -11.2783  -9.4035
    -8.9654  -8.1432  -8.1295  -6.9596  -6.3109

     occupation numbers 
     1.0000   1.0000   1.0000   1.0000   1.0000   1.0000   1.0000   1.0000
     1.0000   1.0000   1.0000   1.0000   1.0000

          k = 0.0476 0.2474 0.0000 ( 14793 PWs)   bands (ev):

   -66.6689 -40.8570 -40.8019 -40.6709 -19.4915 -18.5389 -11.1172  -9.6868
    -9.3419  -8.4077  -7.9136  -7.0676  -6.5459

     occupation numbers 
     1.0000   1.0000   1.0000   1.0000   1.0000   1.0000   1.0000   1.0000
     1.0000   1.0000   1.0000   1.0000   1.0000

          k = 0.0476 0.3024 0.0000 ( 14818 PWs)   bands (ev):

   -66.6624 -40.8640 -40.8441 -40.6863 -19.2088 -18.4252 -11.0841  -9.8487
    -9.7267  -8.6523  -7.6834  -7.2492  -6.7854

     occupation numbers 
     1.0000   1.0000   1.0000   1.0000   1.0000   1.0000   1.0000   1.0000
     1.0000   1.0000   1.0000   1.0000   1.0000

          k = 0.0476 0.3574 0.0000 ( 14790 PWs)   bands (ev):

   -66.6559 -40.9242 -40.8314 -40.7012 -18.9117 -18.3074 -11.2240 -10.1000
    -9.8856  -8.8494  -7.4980  -7.4472  -6.9058

     occupation numbers 
     1.0000   1.0000   1.0000   1.0000   1.0000   1.0000   1.0000   1.0000
     1.0000   1.0000   1.0000   1.0000   1.0000

          k = 0.0476 0.4124 0.0000 ( 14761 PWs)   bands (ev):

   -66.6502 -40.9771 -40.8202 -40.7145 -18.6258 -18.1961 -11.4483 -10.4334
    -9.9177  -8.9974  -7.6226  -7.3645  -6.8476

     occupation numbers 
     1.0000   1.0000   1.0000   1.0000   1.0000   1.0000   1.0000   1.0000
     1.0000   1.0000   1.0000   1.0000   1.0000

          k = 0.0476 0.4674 0.0000 ( 14735 PWs)   bands (ev):

   -66.6457 -41.0185 -40.8114 -40.7249 -18.3829 -18.1037 -11.6644 -10.6976
    -9.9966  -9.0998  -7.7551  -7.2359  -6.6998

     occupation numbers 
     1.0000   1.0000   1.0000   1.0000   1.0000   1.0000   1.0000   1.0000
     1.0000   1.0000   1.0000   1.0000   1.0000

          k = 0.0476 0.5224 0.0000 ( 14722 PWs)   bands (ev):

   -66.6428 -41.0447 -40.8057 -40.7315 -18.2175 -18.0422 -11.8170 -10.8675
   -10.0784  -9.1598  -7.8362  -7.1351  -6.5580

     occupation numbers 
     1.0000   1.0000   1.0000   1.0000   1.0000   1.0000   1.0000   1.0000
     1.0000   1.0000   1.0000   1.0000   1.0000

          k = 0.0476 0.5774 0.0000 ( 14726 PWs)   bands (ev):

   -66.6418 -41.0537 -40.8038 -40.7337 -18.1585 -18.0206 -11.8721 -10.9261
   -10.1120  -9.1795  -7.8634  -7.0987  -6.4983

     occupation numbers 
     1.0000   1.0000   1.0000   1.0000   1.0000   1.0000   1.0000   1.0000
     1.0000   1.0000   1.0000   1.0000   1.0000

          k = 0.0952 0.1650 0.0000 ( 14831 PWs)   bands (ev):

   -66.6759 -40.8706 -40.7342 -40.6560 -19.7720 -18.6524 -11.3028  -9.3542
    -8.8737  -8.1835  -8.1804  -6.8807  -6.2787

     occupation numbers 
     1.0000   1.0000   1.0000   1.0000   1.0000   1.0000   1.0000   1.0000
     1.0000   1.0000   1.0000   1.0000   1.0000

          k = 0.0952 0.2199 0.0000 ( 14819 PWs)   bands (ev):

   -66.6704 -40.8598 -40.7848 -40.6711 -19.5512 -18.5626 -11.1334  -9.6223
    -9.1713  -8.5372  -8.0021  -6.8852  -6.4755

     occupation numbers 
     1.0000   1.0000   1.0000   1.0000   1.0000   1.0000   1.0000   1.0000
     1.0000   1.0000   1.0000   1.0000   1.0000

          k = 0.0952 0.2749 0.0000 ( 14797 PWs)   bands (ev):

   -66.6642 -40.8476 -40.8411 -40.6882 -19.2889 -18.4562 -11.0406  -9.8053
    -9.5235  -8.8255  -7.8395  -7.0012  -6.6933

     occupation numbers 
     1.0000   1.0000   1.0000   1.0000   1.0000   1.0000   1.0000   1.0000
     1.0000   1.0000   1.0000   1.0000   1.0000

          k = 0.0952 0.3299 0.0000 ( 14799 PWs)   bands (ev):

   -66.6578 -40.8981 -40.8351 -40.7057 -19.0022 -18.3409 -11.1067  -9.9189
    -9.8493  -9.0116  -7.7533  -7.1911  -6.8203

     occupation numbers 
     1.0000   1.0000   1.0000   1.0000   1.0000   1.0000   1.0000   1.0000
     1.0000   1.0000   1.0000   1.0000   1.0000

          k = 0.0952 0.3849 0.0000 ( 14775 PWs)   bands (ev):

   -66.6519 -40.9509 -40.8235 -40.7220 -18.7138 -18.2262 -11.2900 -10.3036
    -9.8457  -9.1180  -7.7286  -7.4052  -6.7916

     occupation numbers 
     1.0000   1.0000   1.0000   1.0000   1.0000   1.0000   1.0000   1.0000
     1.0000   1.0000   1.0000   1.0000   1.0000

          k = 0.0952 0.4399 0.0000 ( 14747 PWs)   bands (ev):

   -66.6469 -40.9949 -40.8137 -40.7357 -18.4520 -18.1238 -11.4959 -10.6306
    -9.9001  -9.1705  -7.6755  -7.6033  -6.6656

     occupation numbers 
     1.0000   1.0000   1.0000   1.0000   1.0000   1.0000   1.0000   1.0000
     1.0000   1.0000   1.0000   1.0000   1.0000

          k = 0.0952 0.4949 0.0000 ( 14735 PWs)   bands (ev):

   -66.6433 -41.0264 -40.8066 -40.7455 -18.2495 -18.0461 -11.6640 -10.8671
    -9.9959  -9.1896  -7.7553  -7.5960  -6.5124

     occupation numbers 
     1.0000   1.0000   1.0000   1.0000   1.0000   1.0000   1.0000   1.0000
     1.0000   1.0000   1.0000   1.0000   1.0000

          k = 0.0952 0.5499 0.0000 ( 14720 PWs)   bands (ev):

   -66.6414 -41.0428 -40.8029 -40.7507 -18.1380 -18.0040 -11.7580 -10.9911
   -10.0652  -9.1931  -7.8383  -7.5439  -6.4027

     occupation numbers 
     1.0000   1.0000   1.0000   1.0000   1.0000   1.0000   1.0000   1.0000
     1.0000   1.0000   1.0000   1.0000   1.0000

          k = 0.1429 0.2474 0.0000 ( 14805 PWs)   bands (ev):

   -66.6648 -40.8488 -40.8322 -40.6899 -19.3160 -18.4667 -11.0254  -9.7858
    -9.4018  -8.9491  -7.8998  -6.8902  -6.6595

     occupation numbers 
     1.0000   1.0000   1.0000   1.0000   1.0000   1.0000   1.0000   1.0000
     1.0000   1.0000   1.0000   1.0000   1.0000

          k = 0.1429 0.3024 0.0000 ( 14800 PWs)   bands (ev):

   -66.6588 -40.8817 -40.8371 -40.7109 -19.0489 -18.3578 -11.0341  -9.8226
    -9.7563  -9.1909  -7.9080  -7.0032  -6.7766

     occupation numbers 
     1.0000   1.0000   1.0000   1.0000   1.0000   1.0000   1.0000   1.0000
     1.0000   1.0000   1.0000   1.0000   1.0000

          k = 0.1429 0.3574 0.0000 ( 14795 PWs)   bands (ev):

   -66.6529 -40.9292 -40.8256 -40.7319 -18.7694 -18.2443 -11.1590 -10.1809
    -9.7753  -9.2743  -8.0172  -7.1967  -6.7711

     occupation numbers 
     1.0000   1.0000   1.0000   1.0000   1.0000   1.0000   1.0000   1.0000
     1.0000   1.0000   1.0000   1.0000   1.0000

          k = 0.1429 0.4124 0.0000 ( 14779 PWs)   bands (ev):

   -66.6477 -40.9708 -40.8153 -40.7508 -18.5021 -18.1366 -11.3240 -10.5686
    -9.7760  -9.2812  -8.1021  -7.4238  -6.6739

     occupation numbers 
     1.0000   1.0000   1.0000   1.0000   1.0000   1.0000   1.0000   1.0000
     1.0000   1.0000   1.0000   1.0000   1.0000

          k = 0.1429 0.4674 0.0000 ( 14755 PWs)   bands (ev):

   -66.6436 -41.0032 -40.8073 -40.7657 -18.2769 -18.0467 -11.4715 -10.8721
    -9.8678  -9.2474  -8.1042  -7.6383  -6.5245

     occupation numbers 
     1.0000   1.0000   1.0000   1.0000   1.0000   1.0000   1.0000   1.0000
     1.0000   1.0000   1.0000   1.0000   1.0000

          k = 0.1429 0.5224 0.0000 ( 14748 PWs)   bands (ev):

   -66.6410 -41.0237 -40.8021 -40.7753 -18.1246 -17.9866 -11.5709 -11.0649
    -9.9763  -9.2035  -8.0740  -7.7959  -6.3755

     occupation numbers 
     1.0000   1.0000   1.0000   1.0000   1.0000   1.0000   1.0000   1.0000
     1.0000   1.0000   1.0000   1.0000   1.0000

          k = 0.1429 0.5774 0.0000 ( 14726 PWs)   bands (ev):

   -66.6401 -41.0308 -40.8004 -40.7786 -18.0706 -17.9654 -11.6059 -11.1310
   -10.0219  -9.1831  -8.0597  -7.8550  -6.3103

     occupation numbers 
     1.0000   1.0000   1.0000   1.0000   1.0000   1.0000   1.0000   1.0000
     1.0000   1.0000   1.0000   1.0000   1.0000

          k = 0.1905 0.3299 0.0000 ( 14785 PWs)   bands (ev):

   -66.6533 -40.9203 -40.8263 -40.7367 -18.7883 -18.2504 -11.1073 -10.1225
    -9.7436  -9.3502  -8.1303  -7.1109  -6.7669

     occupation numbers 
     1.0000   1.0000   1.0000   1.0000   1.0000   1.0000   1.0000   1.0000
     1.0000   1.0000   1.0000   1.0000   1.0000

          k = 0.1905 0.3849 0.0000 ( 14761 PWs)   bands (ev):

   -66.6481 -40.9544 -40.8162 -40.7625 -18.5285 -18.1428 -11.2124 -10.5268
    -9.6657  -9.3624  -8.3920  -7.3027  -6.6893

     occupation numbers 
     1.0000   1.0000   1.0000   1.0000   1.0000   1.0000   1.0000   1.0000
     1.0000   1.0000   1.0000   1.0000   1.0000

          k = 0.1905 0.4399 0.0000 ( 14749 PWs)   bands (ev):

   -66.6438 -40.9818 -40.8077 -40.7853 -18.2953 -18.0461 -11.3038 -10.8760
    -9.7004  -9.3028  -8.5593  -7.5323  -6.5530

     occupation numbers 
     1.0000   1.0000   1.0000   1.0000   1.0000   1.0000   1.0000   1.0000
     1.0000   1.0000   1.0000   1.0000   1.0000

          k = 0.1905 0.4949 0.0000 ( 14738 PWs)   bands (ev):

   -66.6407 -41.0009 -40.8023 -40.8016 -18.1173 -17.9722 -11.3608 -11.1281
    -9.8379  -9.2138  -8.6073  -7.7460  -6.3810

     occupation numbers 
     1.0000   1.0000   1.0000   1.0000   1.0000   1.0000   1.0000   1.0000
     1.0000   1.0000   1.0000   1.0000   1.0000

          k = 0.1905 0.5499 0.0000 ( 14758 PWs)   bands (ev):

   -66.6391 -41.0106 -40.8114 -40.7984 -18.0203 -17.9319 -11.3844 -11.2600
    -9.9515  -9.1441  -8.6094  -7.8815  -6.2500

     occupation numbers 
     1.0000   1.0000   1.0000   1.0000   1.0000   1.0000   1.0000   1.0000
     1.0000   1.0000   1.0000   1.0000   1.0000

          k = 0.2381 0.4124 0.0000 ( 14762 PWs)   bands (ev):

   -66.6439 -40.9725 -40.8079 -40.7940 -18.3018 -18.0457 -11.2358 -10.8772
    -9.5903  -9.3252  -8.7781  -7.4894  -6.5664

     occupation numbers 
     1.0000   1.0000   1.0000   1.0000   1.0000   1.0000   1.0000   1.0000
     1.0000   1.0000   1.0000   1.0000   1.0000

          k = 0.2381 0.4674 0.0000 ( 14743 PWs)   bands (ev):

   -66.6406 -40.9833 -40.8221 -40.8013 -18.1142 -17.9639 -11.2136 -11.1643
    -9.6530  -9.2212  -9.0351  -7.7108  -6.3912

     occupation numbers 
     1.0000   1.0000   1.0000   1.0000   1.0000   1.0000   1.0000   1.0000
     1.0000   1.0000   1.0000   1.0000   1.0000

          k = 0.2381 0.5224 0.0000 ( 14764 PWs)   bands (ev):

   -66.6384 -40.9881 -40.8422 -40.7971 -17.9896 -17.9090 -11.3501 -11.1590
    -9.8431  -9.1074  -9.1045  -7.9043  -6.2105

     occupation numbers 
     1.0000   1.0000   1.0000   1.0000   1.0000   1.0000   1.0000   1.0000
     1.0000   1.0000   1.0000   1.0000   1.0000

          k = 0.2381 0.5774 0.0000 ( 14780 PWs)   bands (ev):

   -66.6377 -40.9892 -40.8495 -40.7957 -17.9458 -17.8895 -11.4143 -11.1264
    -9.9423  -9.1158  -9.0491  -7.9864  -6.1283

     occupation numbers 
     1.0000   1.0000   1.0000   1.0000   1.0000   1.0000   1.0000   1.0000
     1.0000   1.0000   1.0000   1.0000   1.0000

          k = 0.2857 0.4949 0.0000 ( 14734 PWs)   bands (ev):

   -66.6382 -40.9766 -40.8565 -40.7967 -17.9793 -17.9008 -11.3824 -11.0551
    -9.7318  -9.3787  -9.0883  -7.9130  -6.1958

     occupation numbers 
     1.0000   1.0000   1.0000   1.0000   1.0000   1.0000   1.0000   1.0000
     1.0000   1.0000   1.0000   1.0000   1.0000

          k = 0.2857 0.5499 0.0000 ( 14738 PWs)   bands (ev):

   -66.6370 -40.9673 -40.8803 -40.7943 -17.9071 -17.8662 -11.4989 -10.8844
    -9.9754  -9.4506  -8.9740  -8.0642  -6.0440

     occupation numbers 
     1.0000   1.0000   1.0000   1.0000   1.0000   1.0000   1.0000   1.0000
     1.0000   1.0000   1.0000   1.0000   1.0000

          k = 0.3333 0.5774 0.0000 ( 14760 PWs)   bands (ev):

   -66.6365 -40.9516 -40.9019 -40.7933 -17.8787 -17.8511 -11.5510 -10.6848
   -10.1611  -9.5346  -8.9084  -8.1397  -5.9684

     occupation numbers 
     1.0000   1.0000   1.0000   1.0000   1.0000   1.0000   1.0000   1.0000
     1.0000   1.0000   1.0000   1.0000   1.0000

     highest occupied level (ev):    -5.9684

!    total energy              =    -184.83183022 Ry
     estimated scf accuracy    <          4.7E-16 Ry

     convergence has been achieved in  36 iterations

     Forces acting on atoms (cartesian axes, Ry/au):

     atom    1 type  1   force =     0.00000000   -0.00000000    0.00000000
     atom    2 type  2   force =    -0.00000000    0.00000000    0.00000482
     atom    3 type  2   force =     0.00000000    0.00000000   -0.00000482
     The non-local contrib.  to forces
     atom    1 type  1   force =     0.00000000    0.00000000    0.00000000
     atom    2 type  2   force =    -0.00000000   -0.00000000   -0.25591966
     atom    3 type  2   force =     0.00000000   -0.00000000    0.25591966
     The ionic contribution  to forces
     atom    1 type  1   force =     0.00000001    0.00000097    0.00000000
     atom    2 type  2   force =    -0.00000000   -0.00000048   46.86186994
     atom    3 type  2   force =    -0.00000000   -0.00000048  -46.86186994
     The local contribution  to forces
     atom    1 type  1   force =    -0.00000000    0.00002380    0.00000000
     atom    2 type  2   force =    -0.00000001    0.00000001  -46.61013262
     atom    3 type  2   force =    -0.00000001    0.00000001   46.61013262
     The core correction contribution to forces
     atom    1 type  1   force =     0.00000000   -0.00000040   -0.00000000
     atom    2 type  2   force =     0.00000000   -0.00000000    0.00418711
     atom    3 type  2   force =     0.00000000   -0.00000000   -0.00418711
     The Hubbard contrib.    to forces
     atom    1 type  1   force =     0.00000000    0.00000000    0.00000000
     atom    2 type  2   force =     0.00000000    0.00000000    0.00000000
     atom    3 type  2   force =     0.00000000    0.00000000    0.00000000
     The SCF correction term to forces
     atom    1 type  1   force =     0.00000000    0.00000000    0.00000000
     atom    2 type  2   force =    -0.00000000   -0.00000000    0.00000005
     atom    3 type  2   force =     0.00000000   -0.00000000   -0.00000005

     Total force =     0.000007     Total SCF correction =     0.000000

     Entering Dynamics:    iteration =     8

     <vel(dt)|acc(dt)> =  -1.00000000

ATOMIC_POSITIONS (crystal)
Mo               0.3333333000        0.6666666000        0.5000000000    0   0   0
S                0.6666666670        0.3333333330        0.5735810743    0   0   1
S                0.6666666670        0.3333333330        0.4264189257    0   0   1



     Writing config-only to output data dir ./tmp/MoS2.save/ :
     XML data file
     NEW-OLD atomic charge density approx. for the potential

     total cpu time spent up to now is      368.3 secs

     per-process dynamical memory:    64.5 Mb

     Self-consistent Calculation

     iteration #  1     ecut=    80.00 Ry     beta= 0.20
     Davidson diagonalization with overlap

---- Real-time Memory Report at c_bands before calling an iterative solver
            87 MiB given to the printing process from OS
            63 MiB allocation reported by mallinfo(arena+hblkhd)
        244294 MiB available memory on the node where the printing process lives
------------------
     ethr =  1.00E-06,  avg # of iterations =  1.0

     Threshold (ethr) on eigenvalues was too large:
     Diagonalizing with lowered threshold

     Davidson diagonalization with overlap

---- Real-time Memory Report at c_bands before calling an iterative solver
            87 MiB given to the printing process from OS
            63 MiB allocation reported by mallinfo(arena+hblkhd)
        244294 MiB available memory on the node where the printing process lives
------------------
     ethr =  1.45E-13,  avg # of iterations =  4.9

     total cpu time spent up to now is      370.7 secs

     total energy              =    -184.83183022 Ry
     estimated scf accuracy    <          1.1E-12 Ry

     iteration #  2     ecut=    80.00 Ry     beta= 0.20
     Davidson diagonalization with overlap

---- Real-time Memory Report at c_bands before calling an iterative solver
            87 MiB given to the printing process from OS
            63 MiB allocation reported by mallinfo(arena+hblkhd)
        244294 MiB available memory on the node where the printing process lives
------------------
     ethr =  1.00E-13,  avg # of iterations =  1.0

     total cpu time spent up to now is      371.6 secs

     total energy              =    -184.83183022 Ry
     estimated scf accuracy    <          7.2E-13 Ry

     iteration #  3     ecut=    80.00 Ry     beta= 0.20
     Davidson diagonalization with overlap

---- Real-time Memory Report at c_bands before calling an iterative solver
            87 MiB given to the printing process from OS
            63 MiB allocation reported by mallinfo(arena+hblkhd)
        244295 MiB available memory on the node where the printing process lives
------------------
     ethr =  1.00E-13,  avg # of iterations =  1.0

     total cpu time spent up to now is      372.5 secs

     total energy              =    -184.83183022 Ry
     estimated scf accuracy    <          9.7E-14 Ry

     iteration #  4     ecut=    80.00 Ry     beta= 0.20
     Davidson diagonalization with overlap

---- Real-time Memory Report at c_bands before calling an iterative solver
            87 MiB given to the printing process from OS
            63 MiB allocation reported by mallinfo(arena+hblkhd)
        244295 MiB available memory on the node where the printing process lives
------------------
     ethr =  1.00E-13,  avg # of iterations =  1.0

     total cpu time spent up to now is      373.5 secs

     total energy              =    -184.83183022 Ry
     estimated scf accuracy    <          4.0E-14 Ry

     iteration #  5     ecut=    80.00 Ry     beta= 0.20
     Davidson diagonalization with overlap

---- Real-time Memory Report at c_bands before calling an iterative solver
            87 MiB given to the printing process from OS
            63 MiB allocation reported by mallinfo(arena+hblkhd)
        244295 MiB available memory on the node where the printing process lives
------------------
     ethr =  1.00E-13,  avg # of iterations =  1.0

     total cpu time spent up to now is      374.4 secs

     total energy              =    -184.83183022 Ry
     estimated scf accuracy    <          4.6E-15 Ry

     iteration #  6     ecut=    80.00 Ry     beta= 0.20
     Davidson diagonalization with overlap

---- Real-time Memory Report at c_bands before calling an iterative solver
            87 MiB given to the printing process from OS
            63 MiB allocation reported by mallinfo(arena+hblkhd)
        244295 MiB available memory on the node where the printing process lives
------------------
     ethr =  1.00E-13,  avg # of iterations =  1.0

     total cpu time spent up to now is      375.3 secs

     total energy              =    -184.83183022 Ry
     estimated scf accuracy    <          2.6E-14 Ry

     iteration #  7     ecut=    80.00 Ry     beta= 0.20
     Davidson diagonalization with overlap

---- Real-time Memory Report at c_bands before calling an iterative solver
            87 MiB given to the printing process from OS
            63 MiB allocation reported by mallinfo(arena+hblkhd)
        244295 MiB available memory on the node where the printing process lives
------------------
     ethr =  1.00E-13,  avg # of iterations =  1.0

     total cpu time spent up to now is      376.2 secs

     total energy              =    -184.83183022 Ry
     estimated scf accuracy    <          6.5E-15 Ry

     iteration #  8     ecut=    80.00 Ry     beta= 0.20
     Davidson diagonalization with overlap

---- Real-time Memory Report at c_bands before calling an iterative solver
            87 MiB given to the printing process from OS
            63 MiB allocation reported by mallinfo(arena+hblkhd)
        244295 MiB available memory on the node where the printing process lives
------------------
     ethr =  1.00E-13,  avg # of iterations =  1.0

     total cpu time spent up to now is      377.1 secs

     total energy              =    -184.83183022 Ry
     estimated scf accuracy    <          8.1E-15 Ry

     iteration #  9     ecut=    80.00 Ry     beta= 0.20
     Davidson diagonalization with overlap

---- Real-time Memory Report at c_bands before calling an iterative solver
            87 MiB given to the printing process from OS
            63 MiB allocation reported by mallinfo(arena+hblkhd)
        244298 MiB available memory on the node where the printing process lives
------------------
     ethr =  1.00E-13,  avg # of iterations =  1.0

     total cpu time spent up to now is      378.0 secs

     total energy              =    -184.83183022 Ry
     estimated scf accuracy    <          1.3E-15 Ry

     iteration # 10     ecut=    80.00 Ry     beta= 0.20
     Davidson diagonalization with overlap

---- Real-time Memory Report at c_bands before calling an iterative solver
            87 MiB given to the printing process from OS
            63 MiB allocation reported by mallinfo(arena+hblkhd)
        244298 MiB available memory on the node where the printing process lives
------------------
     ethr =  1.00E-13,  avg # of iterations =  1.0

     total cpu time spent up to now is      378.9 secs

     total energy              =    -184.83183022 Ry
     estimated scf accuracy    <          3.8E-15 Ry

     iteration # 11     ecut=    80.00 Ry     beta= 0.20
     Davidson diagonalization with overlap

---- Real-time Memory Report at c_bands before calling an iterative solver
            87 MiB given to the printing process from OS
            63 MiB allocation reported by mallinfo(arena+hblkhd)
        244298 MiB available memory on the node where the printing process lives
------------------
     ethr =  1.00E-13,  avg # of iterations =  1.0

     total cpu time spent up to now is      379.8 secs

     End of self-consistent calculation

          k = 0.0000 0.0000 0.0000 ( 14903 PWs)   bands (ev):

   -66.6868 -40.8920 -40.6291 -40.6291 -20.1838 -18.8200 -11.7313  -8.5915
    -8.5915  -7.8013  -7.4349  -7.4349  -6.0269

     occupation numbers 
     1.0000   1.0000   1.0000   1.0000   1.0000   1.0000   1.0000   1.0000
     1.0000   1.0000   1.0000   1.0000   1.0000

          k = 0.0000 0.0550 0.0000 ( 14887 PWs)   bands (ev):

   -66.6858 -40.8900 -40.6389 -40.6313 -20.1479 -18.8054 -11.6903  -8.6732
    -8.5537  -8.0203  -7.4938  -7.2669  -6.0395

     occupation numbers 
     1.0000   1.0000   1.0000   1.0000   1.0000   1.0000   1.0000   1.0000
     1.0000   1.0000   1.0000   1.0000   1.0000

          k = 0.0000 0.1100 0.0000 ( 14865 PWs)   bands (ev):

   -66.6829 -40.8844 -40.6673 -40.6377 -20.0419 -18.7623 -11.5727  -8.8966
    -8.4429  -8.3780  -7.6552  -7.0773  -6.0884

     occupation numbers 
     1.0000   1.0000   1.0000   1.0000   1.0000   1.0000   1.0000   1.0000
     1.0000   1.0000   1.0000   1.0000   1.0000

          k = 0.0000 0.1650 0.0000 ( 14863 PWs)   bands (ev):

   -66.6784 -40.8756 -40.7117 -40.6478 -19.8711 -18.6928 -11.3982  -9.2066
    -8.7604  -8.2668  -7.8836  -7.0090  -6.2024

     occupation numbers 
     1.0000   1.0000   1.0000   1.0000   1.0000   1.0000   1.0000   1.0000
     1.0000   1.0000   1.0000   1.0000   1.0000

          k = 0.0000 0.2199 0.0000 ( 14819 PWs)   bands (ev):

   -66.6727 -40.8643 -40.7678 -40.6606 -19.6446 -18.6010 -11.2100  -9.5307
    -9.1508  -8.1417  -8.0388  -7.0794  -6.4046

     occupation numbers 
     1.0000   1.0000   1.0000   1.0000   1.0000   1.0000   1.0000   1.0000
     1.0000   1.0000   1.0000   1.0000   1.0000

          k = 0.0000 0.2749 0.0000 ( 14799 PWs)   bands (ev):

   -66.6662 -40.8516 -40.8304 -40.6749 -19.3753 -18.4924 -11.0942  -9.7797
    -9.5409  -8.4000  -7.7784  -7.2436  -6.6666

     occupation numbers 
     1.0000   1.0000   1.0000   1.0000   1.0000   1.0000   1.0000   1.0000
     1.0000   1.0000   1.0000   1.0000   1.0000

          k = 0.0000 0.3299 0.0000 ( 14811 PWs)   bands (ev):

   -66.6595 -40.8937 -40.8385 -40.6896 -19.0805 -18.3749 -11.1492  -9.9192
    -9.8841  -8.6375  -7.5110  -7.4356  -6.8959

     occupation numbers 
     1.0000   1.0000   1.0000   1.0000   1.0000   1.0000   1.0000   1.0000
     1.0000   1.0000   1.0000   1.0000   1.0000

          k = 0.0000 0.3849 0.0000 ( 14770 PWs)   bands (ev):

   -66.6533 -40.9523 -40.8263 -40.7032 -18.7832 -18.2584 -11.3489 -10.2669
    -9.9123  -8.8403  -7.6082  -7.2653  -6.9891

     occupation numbers 
     1.0000   1.0000   1.0000   1.0000   1.0000   1.0000   1.0000   1.0000
     1.0000   1.0000   1.0000   1.0000   1.0000

          k = 0.0000 0.4399 0.0000 ( 14726 PWs)   bands (ev):

   -66.6481 -41.0011 -40.8160 -40.7146 -18.5123 -18.1548 -11.5849 -10.5596
    -9.9706  -8.9991  -7.7399  -7.0670  -6.9166

     occupation numbers 
     1.0000   1.0000   1.0000   1.0000   1.0000   1.0000   1.0000   1.0000
     1.0000   1.0000   1.0000   1.0000   1.0000

          k = 0.0000 0.4949 0.0000 ( 14720 PWs)   bands (ev):

   -66.6443 -41.0361 -40.8086 -40.7228 -18.3019 -18.0763 -11.7812 -10.7722
   -10.0564  -9.1078  -7.8256  -6.9320  -6.7581

     occupation numbers 
     1.0000   1.0000   1.0000   1.0000   1.0000   1.0000   1.0000   1.0000
     1.0000   1.0000   1.0000   1.0000   1.0000

          k = 0.0000 0.5499 0.0000 ( 14732 PWs)   bands (ev):

   -66.6423 -41.0543 -40.8047 -40.7271 -18.1858 -18.0338 -11.8921 -10.8842
   -10.1168  -9.1631  -7.8672  -6.8650  -6.6366

     occupation numbers 
     1.0000   1.0000   1.0000   1.0000   1.0000   1.0000   1.0000   1.0000
     1.0000   1.0000   1.0000   1.0000   1.0000

          k = 0.0476 0.0825 0.0000 ( 14879 PWs)   bands (ev):

   -66.6839 -40.8862 -40.6578 -40.6358 -20.0769 -18.7765 -11.6109  -8.8251
    -8.4800  -8.2737  -7.6198  -7.1061  -6.0702

     occupation numbers 
     1.0000   1.0000   1.0000   1.0000   1.0000   1.0000   1.0000   1.0000
     1.0000   1.0000   1.0000   1.0000   1.0000

          k = 0.0476 0.1375 0.0000 ( 14866 PWs)   bands (ev):

   -66.6802 -40.8790 -40.6938 -40.6445 -19.9385 -18.7202 -11.4637  -9.0895
    -8.6060  -8.3390  -7.8505  -6.9739  -6.1515

     occupation numbers 
     1.0000   1.0000   1.0000   1.0000   1.0000   1.0000   1.0000   1.0000
     1.0000   1.0000   1.0000   1.0000   1.0000

          k = 0.0476 0.1925 0.0000 ( 14822 PWs)   bands (ev):

   -66.6751 -40.8690 -40.7434 -40.6566 -19.7397 -18.6394 -11.2783  -9.4034
    -8.9654  -8.1432  -8.1295  -6.9596  -6.3109

     occupation numbers 
     1.0000   1.0000   1.0000   1.0000   1.0000   1.0000   1.0000   1.0000
     1.0000   1.0000   1.0000   1.0000   1.0000

          k = 0.0476 0.2474 0.0000 ( 14793 PWs)   bands (ev):

   -66.6689 -40.8570 -40.8019 -40.6709 -19.4915 -18.5389 -11.1172  -9.6868
    -9.3419  -8.4077  -7.9136  -7.0676  -6.5459

     occupation numbers 
     1.0000   1.0000   1.0000   1.0000   1.0000   1.0000   1.0000   1.0000
     1.0000   1.0000   1.0000   1.0000   1.0000

          k = 0.0476 0.3024 0.0000 ( 14818 PWs)   bands (ev):

   -66.6624 -40.8640 -40.8441 -40.6863 -19.2088 -18.4252 -11.0840  -9.8487
    -9.7267  -8.6523  -7.6834  -7.2492  -6.7854

     occupation numbers 
     1.0000   1.0000   1.0000   1.0000   1.0000   1.0000   1.0000   1.0000
     1.0000   1.0000   1.0000   1.0000   1.0000

          k = 0.0476 0.3574 0.0000 ( 14790 PWs)   bands (ev):

   -66.6559 -40.9242 -40.8314 -40.7012 -18.9117 -18.3074 -11.2240 -10.1000
    -9.8856  -8.8494  -7.4980  -7.4472  -6.9058

     occupation numbers 
     1.0000   1.0000   1.0000   1.0000   1.0000   1.0000   1.0000   1.0000
     1.0000   1.0000   1.0000   1.0000   1.0000

          k = 0.0476 0.4124 0.0000 ( 14761 PWs)   bands (ev):

   -66.6502 -40.9771 -40.8202 -40.7145 -18.6258 -18.1961 -11.4483 -10.4334
    -9.9176  -8.9974  -7.6226  -7.3645  -6.8476

     occupation numbers 
     1.0000   1.0000   1.0000   1.0000   1.0000   1.0000   1.0000   1.0000
     1.0000   1.0000   1.0000   1.0000   1.0000

          k = 0.0476 0.4674 0.0000 ( 14735 PWs)   bands (ev):

   -66.6457 -41.0185 -40.8114 -40.7249 -18.3829 -18.1037 -11.6644 -10.6976
    -9.9966  -9.0998  -7.7551  -7.2359  -6.6998

     occupation numbers 
     1.0000   1.0000   1.0000   1.0000   1.0000   1.0000   1.0000   1.0000
     1.0000   1.0000   1.0000   1.0000   1.0000

          k = 0.0476 0.5224 0.0000 ( 14722 PWs)   bands (ev):

   -66.6428 -41.0447 -40.8057 -40.7315 -18.2175 -18.0422 -11.8170 -10.8675
   -10.0784  -9.1598  -7.8362  -7.1351  -6.5580

     occupation numbers 
     1.0000   1.0000   1.0000   1.0000   1.0000   1.0000   1.0000   1.0000
     1.0000   1.0000   1.0000   1.0000   1.0000

          k = 0.0476 0.5774 0.0000 ( 14726 PWs)   bands (ev):

   -66.6418 -41.0537 -40.8038 -40.7337 -18.1585 -18.0206 -11.8721 -10.9261
   -10.1120  -9.1795  -7.8634  -7.0987  -6.4983

     occupation numbers 
     1.0000   1.0000   1.0000   1.0000   1.0000   1.0000   1.0000   1.0000
     1.0000   1.0000   1.0000   1.0000   1.0000

          k = 0.0952 0.1650 0.0000 ( 14831 PWs)   bands (ev):

   -66.6759 -40.8706 -40.7342 -40.6560 -19.7720 -18.6524 -11.3028  -9.3542
    -8.8737  -8.1835  -8.1804  -6.8807  -6.2787

     occupation numbers 
     1.0000   1.0000   1.0000   1.0000   1.0000   1.0000   1.0000   1.0000
     1.0000   1.0000   1.0000   1.0000   1.0000

          k = 0.0952 0.2199 0.0000 ( 14819 PWs)   bands (ev):

   -66.6704 -40.8598 -40.7848 -40.6711 -19.5512 -18.5626 -11.1334  -9.6223
    -9.1712  -8.5372  -8.0020  -6.8852  -6.4755

     occupation numbers 
     1.0000   1.0000   1.0000   1.0000   1.0000   1.0000   1.0000   1.0000
     1.0000   1.0000   1.0000   1.0000   1.0000

          k = 0.0952 0.2749 0.0000 ( 14797 PWs)   bands (ev):

   -66.6642 -40.8476 -40.8411 -40.6882 -19.2888 -18.4562 -11.0406  -9.8053
    -9.5235  -8.8255  -7.8395  -7.0012  -6.6933

     occupation numbers 
     1.0000   1.0000   1.0000   1.0000   1.0000   1.0000   1.0000   1.0000
     1.0000   1.0000   1.0000   1.0000   1.0000

          k = 0.0952 0.3299 0.0000 ( 14799 PWs)   bands (ev):

   -66.6578 -40.8981 -40.8351 -40.7057 -19.0022 -18.3409 -11.1066  -9.9188
    -9.8493  -9.0116  -7.7532  -7.1911  -6.8203

     occupation numbers 
     1.0000   1.0000   1.0000   1.0000   1.0000   1.0000   1.0000   1.0000
     1.0000   1.0000   1.0000   1.0000   1.0000

          k = 0.0952 0.3849 0.0000 ( 14775 PWs)   bands (ev):

   -66.6519 -40.9509 -40.8235 -40.7220 -18.7138 -18.2262 -11.2900 -10.3036
    -9.8457  -9.1180  -7.7286  -7.4052  -6.7916

     occupation numbers 
     1.0000   1.0000   1.0000   1.0000   1.0000   1.0000   1.0000   1.0000
     1.0000   1.0000   1.0000   1.0000   1.0000

          k = 0.0952 0.4399 0.0000 ( 14747 PWs)   bands (ev):

   -66.6469 -40.9949 -40.8137 -40.7357 -18.4520 -18.1238 -11.4959 -10.6306
    -9.9001  -9.1705  -7.6755  -7.6033  -6.6655

     occupation numbers 
     1.0000   1.0000   1.0000   1.0000   1.0000   1.0000   1.0000   1.0000
     1.0000   1.0000   1.0000   1.0000   1.0000

          k = 0.0952 0.4949 0.0000 ( 14735 PWs)   bands (ev):

   -66.6433 -41.0264 -40.8066 -40.7455 -18.2494 -18.0461 -11.6640 -10.8671
    -9.9959  -9.1896  -7.7553  -7.5960  -6.5124

     occupation numbers 
     1.0000   1.0000   1.0000   1.0000   1.0000   1.0000   1.0000   1.0000
     1.0000   1.0000   1.0000   1.0000   1.0000

          k = 0.0952 0.5499 0.0000 ( 14720 PWs)   bands (ev):

   -66.6414 -41.0428 -40.8029 -40.7507 -18.1380 -18.0040 -11.7580 -10.9911
   -10.0652  -9.1931  -7.8383  -7.5439  -6.4027

     occupation numbers 
     1.0000   1.0000   1.0000   1.0000   1.0000   1.0000   1.0000   1.0000
     1.0000   1.0000   1.0000   1.0000   1.0000

          k = 0.1429 0.2474 0.0000 ( 14805 PWs)   bands (ev):

   -66.6648 -40.8488 -40.8322 -40.6899 -19.3160 -18.4667 -11.0254  -9.7858
    -9.4018  -8.9491  -7.8997  -6.8902  -6.6595

     occupation numbers 
     1.0000   1.0000   1.0000   1.0000   1.0000   1.0000   1.0000   1.0000
     1.0000   1.0000   1.0000   1.0000   1.0000

          k = 0.1429 0.3024 0.0000 ( 14800 PWs)   bands (ev):

   -66.6588 -40.8817 -40.8371 -40.7109 -19.0489 -18.3578 -11.0341  -9.8226
    -9.7563  -9.1909  -7.9080  -7.0032  -6.7766

     occupation numbers 
     1.0000   1.0000   1.0000   1.0000   1.0000   1.0000   1.0000   1.0000
     1.0000   1.0000   1.0000   1.0000   1.0000

          k = 0.1429 0.3574 0.0000 ( 14795 PWs)   bands (ev):

   -66.6529 -40.9291 -40.8256 -40.7319 -18.7693 -18.2443 -11.1590 -10.1809
    -9.7753  -9.2743  -8.0172  -7.1967  -6.7710

     occupation numbers 
     1.0000   1.0000   1.0000   1.0000   1.0000   1.0000   1.0000   1.0000
     1.0000   1.0000   1.0000   1.0000   1.0000

          k = 0.1429 0.4124 0.0000 ( 14779 PWs)   bands (ev):

   -66.6477 -40.9708 -40.8153 -40.7508 -18.5021 -18.1366 -11.3240 -10.5686
    -9.7760  -9.2812  -8.1021  -7.4238  -6.6739

     occupation numbers 
     1.0000   1.0000   1.0000   1.0000   1.0000   1.0000   1.0000   1.0000
     1.0000   1.0000   1.0000   1.0000   1.0000

          k = 0.1429 0.4674 0.0000 ( 14755 PWs)   bands (ev):

   -66.6436 -41.0032 -40.8073 -40.7657 -18.2769 -18.0467 -11.4715 -10.8721
    -9.8678  -9.2474  -8.1042  -7.6383  -6.5245

     occupation numbers 
     1.0000   1.0000   1.0000   1.0000   1.0000   1.0000   1.0000   1.0000
     1.0000   1.0000   1.0000   1.0000   1.0000

          k = 0.1429 0.5224 0.0000 ( 14748 PWs)   bands (ev):

   -66.6410 -41.0237 -40.8021 -40.7753 -18.1246 -17.9866 -11.5709 -11.0649
    -9.9763  -9.2035  -8.0740  -7.7959  -6.3755

     occupation numbers 
     1.0000   1.0000   1.0000   1.0000   1.0000   1.0000   1.0000   1.0000
     1.0000   1.0000   1.0000   1.0000   1.0000

          k = 0.1429 0.5774 0.0000 ( 14726 PWs)   bands (ev):

   -66.6401 -41.0308 -40.8003 -40.7786 -18.0706 -17.9654 -11.6059 -11.1310
   -10.0219  -9.1831  -8.0597  -7.8550  -6.3103

     occupation numbers 
     1.0000   1.0000   1.0000   1.0000   1.0000   1.0000   1.0000   1.0000
     1.0000   1.0000   1.0000   1.0000   1.0000

          k = 0.1905 0.3299 0.0000 ( 14785 PWs)   bands (ev):

   -66.6533 -40.9203 -40.8263 -40.7367 -18.7883 -18.2504 -11.1073 -10.1224
    -9.7435  -9.3502  -8.1303  -7.1109  -6.7669

     occupation numbers 
     1.0000   1.0000   1.0000   1.0000   1.0000   1.0000   1.0000   1.0000
     1.0000   1.0000   1.0000   1.0000   1.0000

          k = 0.1905 0.3849 0.0000 ( 14761 PWs)   bands (ev):

   -66.6481 -40.9544 -40.8162 -40.7625 -18.5285 -18.1428 -11.2124 -10.5267
    -9.6657  -9.3623  -8.3920  -7.3027  -6.6893

     occupation numbers 
     1.0000   1.0000   1.0000   1.0000   1.0000   1.0000   1.0000   1.0000
     1.0000   1.0000   1.0000   1.0000   1.0000

          k = 0.1905 0.4399 0.0000 ( 14749 PWs)   bands (ev):

   -66.6438 -40.9818 -40.8077 -40.7853 -18.2953 -18.0461 -11.3037 -10.8760
    -9.7003  -9.3028  -8.5593  -7.5323  -6.5530

     occupation numbers 
     1.0000   1.0000   1.0000   1.0000   1.0000   1.0000   1.0000   1.0000
     1.0000   1.0000   1.0000   1.0000   1.0000

          k = 0.1905 0.4949 0.0000 ( 14738 PWs)   bands (ev):

   -66.6407 -41.0009 -40.8023 -40.8016 -18.1173 -17.9722 -11.3608 -11.1281
    -9.8379  -9.2138  -8.6073  -7.7460  -6.3810

     occupation numbers 
     1.0000   1.0000   1.0000   1.0000   1.0000   1.0000   1.0000   1.0000
     1.0000   1.0000   1.0000   1.0000   1.0000

          k = 0.1905 0.5499 0.0000 ( 14758 PWs)   bands (ev):

   -66.6391 -41.0106 -40.8114 -40.7984 -18.0203 -17.9319 -11.3844 -11.2600
    -9.9515  -9.1441  -8.6094  -7.8815  -6.2500

     occupation numbers 
     1.0000   1.0000   1.0000   1.0000   1.0000   1.0000   1.0000   1.0000
     1.0000   1.0000   1.0000   1.0000   1.0000

          k = 0.2381 0.4124 0.0000 ( 14762 PWs)   bands (ev):

   -66.6439 -40.9725 -40.8079 -40.7940 -18.3018 -18.0456 -11.2358 -10.8772
    -9.5903  -9.3252  -8.7781  -7.4894  -6.5664

     occupation numbers 
     1.0000   1.0000   1.0000   1.0000   1.0000   1.0000   1.0000   1.0000
     1.0000   1.0000   1.0000   1.0000   1.0000

          k = 0.2381 0.4674 0.0000 ( 14743 PWs)   bands (ev):

   -66.6406 -40.9833 -40.8221 -40.8013 -18.1142 -17.9639 -11.2136 -11.1643
    -9.6530  -9.2212  -9.0351  -7.7108  -6.3912

     occupation numbers 
     1.0000   1.0000   1.0000   1.0000   1.0000   1.0000   1.0000   1.0000
     1.0000   1.0000   1.0000   1.0000   1.0000

          k = 0.2381 0.5224 0.0000 ( 14764 PWs)   bands (ev):

   -66.6384 -40.9881 -40.8422 -40.7971 -17.9896 -17.9090 -11.3501 -11.1590
    -9.8431  -9.1074  -9.1045  -7.9043  -6.2105

     occupation numbers 
     1.0000   1.0000   1.0000   1.0000   1.0000   1.0000   1.0000   1.0000
     1.0000   1.0000   1.0000   1.0000   1.0000

          k = 0.2381 0.5774 0.0000 ( 14780 PWs)   bands (ev):

   -66.6377 -40.9892 -40.8495 -40.7957 -17.9458 -17.8895 -11.4143 -11.1264
    -9.9422  -9.1158  -9.0491  -7.9865  -6.1283

     occupation numbers 
     1.0000   1.0000   1.0000   1.0000   1.0000   1.0000   1.0000   1.0000
     1.0000   1.0000   1.0000   1.0000   1.0000

          k = 0.2857 0.4949 0.0000 ( 14734 PWs)   bands (ev):

   -66.6382 -40.9766 -40.8565 -40.7967 -17.9793 -17.9008 -11.3824 -11.0551
    -9.7318  -9.3787  -9.0883  -7.9130  -6.1958

     occupation numbers 
     1.0000   1.0000   1.0000   1.0000   1.0000   1.0000   1.0000   1.0000
     1.0000   1.0000   1.0000   1.0000   1.0000

          k = 0.2857 0.5499 0.0000 ( 14738 PWs)   bands (ev):

   -66.6370 -40.9673 -40.8803 -40.7943 -17.9071 -17.8662 -11.4989 -10.8844
    -9.9754  -9.4505  -8.9740  -8.0642  -6.0440

     occupation numbers 
     1.0000   1.0000   1.0000   1.0000   1.0000   1.0000   1.0000   1.0000
     1.0000   1.0000   1.0000   1.0000   1.0000

          k = 0.3333 0.5774 0.0000 ( 14760 PWs)   bands (ev):

   -66.6365 -40.9516 -40.9019 -40.7933 -17.8787 -17.8511 -11.5510 -10.6848
   -10.1610  -9.5346  -8.9084  -8.1397  -5.9684

     occupation numbers 
     1.0000   1.0000   1.0000   1.0000   1.0000   1.0000   1.0000   1.0000
     1.0000   1.0000   1.0000   1.0000   1.0000

     highest occupied level (ev):    -5.9684

!    total energy              =    -184.83183022 Ry
     estimated scf accuracy    <          7.1E-16 Ry

     convergence has been achieved in  11 iterations

     Forces acting on atoms (cartesian axes, Ry/au):

     atom    1 type  1   force =     0.00000000   -0.00000000    0.00000000
     atom    2 type  2   force =    -0.00000000   -0.00000000    0.00000270
     atom    3 type  2   force =     0.00000000    0.00000000   -0.00000270
     The non-local contrib.  to forces
     atom    1 type  1   force =     0.00000000    0.00000000    0.00000000
     atom    2 type  2   force =    -0.00000000   -0.00000000   -0.25592098
     atom    3 type  2   force =     0.00000000   -0.00000000    0.25592098
     The ionic contribution  to forces
     atom    1 type  1   force =     0.00000001    0.00000097    0.00000000
     atom    2 type  2   force =    -0.00000000   -0.00000048   46.86188401
     atom    3 type  2   force =    -0.00000000   -0.00000048  -46.86188401
     The local contribution  to forces
     atom    1 type  1   force =     0.00000000    0.00002380    0.00000000
     atom    2 type  2   force =    -0.00000001    0.00000001  -46.61014748
     atom    3 type  2   force =    -0.00000001    0.00000001   46.61014748
     The core correction contribution to forces
     atom    1 type  1   force =     0.00000000   -0.00000040   -0.00000000
     atom    2 type  2   force =     0.00000000   -0.00000000    0.00418720
     atom    3 type  2   force =     0.00000000   -0.00000000   -0.00418720
     The Hubbard contrib.    to forces
     atom    1 type  1   force =     0.00000000    0.00000000    0.00000000
     atom    2 type  2   force =     0.00000000    0.00000000    0.00000000
     atom    3 type  2   force =     0.00000000    0.00000000    0.00000000
     The SCF correction term to forces
     atom    1 type  1   force =    -0.00000000    0.00000000    0.00000000
     atom    2 type  2   force =    -0.00000000   -0.00000000   -0.00000005
     atom    3 type  2   force =    -0.00000000   -0.00000000    0.00000005

     Total force =     0.000004     Total SCF correction =     0.000000

     Entering Dynamics:    iteration =     9

     <vel(dt)|acc(dt)> =   1.00000000

ATOMIC_POSITIONS (crystal)
Mo               0.3333333000        0.6666666000        0.5000000000    0   0   0
S                0.6666666670        0.3333333330        0.5735812801    0   0   1
S                0.6666666670        0.3333333330        0.4264187199    0   0   1



     Writing config-only to output data dir ./tmp/MoS2.save/ :
     XML data file
     NEW-OLD atomic charge density approx. for the potential

     total cpu time spent up to now is      380.0 secs

     per-process dynamical memory:    64.5 Mb

     Self-consistent Calculation

     iteration #  1     ecut=    80.00 Ry     beta= 0.20
     Davidson diagonalization with overlap

---- Real-time Memory Report at c_bands before calling an iterative solver
            87 MiB given to the printing process from OS
            63 MiB allocation reported by mallinfo(arena+hblkhd)
        244298 MiB available memory on the node where the printing process lives
------------------
     ethr =  1.00E-06,  avg # of iterations =  1.0

     Threshold (ethr) on eigenvalues was too large:
     Diagonalizing with lowered threshold

     Davidson diagonalization with overlap

---- Real-time Memory Report at c_bands before calling an iterative solver
            87 MiB given to the printing process from OS
            63 MiB allocation reported by mallinfo(arena+hblkhd)
        244298 MiB available memory on the node where the printing process lives
------------------
     ethr =  3.60E-13,  avg # of iterations =  4.9

     total cpu time spent up to now is      382.4 secs

     total energy              =    -184.83183022 Ry
     estimated scf accuracy    <          2.6E-12 Ry

     iteration #  2     ecut=    80.00 Ry     beta= 0.20
     Davidson diagonalization with overlap

---- Real-time Memory Report at c_bands before calling an iterative solver
            87 MiB given to the printing process from OS
            63 MiB allocation reported by mallinfo(arena+hblkhd)
        244297 MiB available memory on the node where the printing process lives
------------------
     ethr =  1.00E-13,  avg # of iterations =  2.1

     total cpu time spent up to now is      383.4 secs

     total energy              =    -184.83183022 Ry
     estimated scf accuracy    <          1.8E-12 Ry

     iteration #  3     ecut=    80.00 Ry     beta= 0.20
     Davidson diagonalization with overlap

---- Real-time Memory Report at c_bands before calling an iterative solver
            87 MiB given to the printing process from OS
            63 MiB allocation reported by mallinfo(arena+hblkhd)
        244297 MiB available memory on the node where the printing process lives
------------------
     ethr =  1.00E-13,  avg # of iterations =  1.0

     total cpu time spent up to now is      384.3 secs

     total energy              =    -184.83183022 Ry
     estimated scf accuracy    <          8.4E-13 Ry

     iteration #  4     ecut=    80.00 Ry     beta= 0.20
     Davidson diagonalization with overlap

---- Real-time Memory Report at c_bands before calling an iterative solver
            87 MiB given to the printing process from OS
            63 MiB allocation reported by mallinfo(arena+hblkhd)
        244297 MiB available memory on the node where the printing process lives
------------------
     ethr =  1.00E-13,  avg # of iterations =  1.0

     total cpu time spent up to now is      385.2 secs

     total energy              =    -184.83183022 Ry
     estimated scf accuracy    <          3.1E-13 Ry

     iteration #  5     ecut=    80.00 Ry     beta= 0.20
     Davidson diagonalization with overlap

---- Real-time Memory Report at c_bands before calling an iterative solver
            87 MiB given to the printing process from OS
            63 MiB allocation reported by mallinfo(arena+hblkhd)
        244297 MiB available memory on the node where the printing process lives
------------------
     ethr =  1.00E-13,  avg # of iterations =  1.0

     total cpu time spent up to now is      386.1 secs

     total energy              =    -184.83183022 Ry
     estimated scf accuracy    <          4.4E-14 Ry

     iteration #  6     ecut=    80.00 Ry     beta= 0.20
     Davidson diagonalization with overlap

---- Real-time Memory Report at c_bands before calling an iterative solver
            87 MiB given to the printing process from OS
            63 MiB allocation reported by mallinfo(arena+hblkhd)
        244297 MiB available memory on the node where the printing process lives
------------------
     ethr =  1.00E-13,  avg # of iterations =  1.0

     total cpu time spent up to now is      387.0 secs

     total energy              =    -184.83183022 Ry
     estimated scf accuracy    <          2.5E-13 Ry

     iteration #  7     ecut=    80.00 Ry     beta= 0.20
     Davidson diagonalization with overlap

---- Real-time Memory Report at c_bands before calling an iterative solver
            87 MiB given to the printing process from OS
            63 MiB allocation reported by mallinfo(arena+hblkhd)
        244297 MiB available memory on the node where the printing process lives
------------------
     ethr =  1.00E-13,  avg # of iterations =  1.0

     total cpu time spent up to now is      387.9 secs

     total energy              =    -184.83183022 Ry
     estimated scf accuracy    <          1.1E-14 Ry

     iteration #  8     ecut=    80.00 Ry     beta= 0.20
     Davidson diagonalization with overlap

---- Real-time Memory Report at c_bands before calling an iterative solver
            87 MiB given to the printing process from OS
            63 MiB allocation reported by mallinfo(arena+hblkhd)
        244297 MiB available memory on the node where the printing process lives
------------------
     ethr =  1.00E-13,  avg # of iterations =  1.0

     total cpu time spent up to now is      388.8 secs

     total energy              =    -184.83183022 Ry
     estimated scf accuracy    <          6.8E-14 Ry

     iteration #  9     ecut=    80.00 Ry     beta= 0.20
     Davidson diagonalization with overlap

---- Real-time Memory Report at c_bands before calling an iterative solver
            87 MiB given to the printing process from OS
            63 MiB allocation reported by mallinfo(arena+hblkhd)
        244295 MiB available memory on the node where the printing process lives
------------------
     ethr =  1.00E-13,  avg # of iterations =  1.0

     total cpu time spent up to now is      389.7 secs

     total energy              =    -184.83183022 Ry
     estimated scf accuracy    <          2.6E-15 Ry

     iteration # 10     ecut=    80.00 Ry     beta= 0.20
     Davidson diagonalization with overlap

---- Real-time Memory Report at c_bands before calling an iterative solver
            87 MiB given to the printing process from OS
            63 MiB allocation reported by mallinfo(arena+hblkhd)
        244295 MiB available memory on the node where the printing process lives
------------------
     ethr =  1.00E-13,  avg # of iterations =  1.0

     total cpu time spent up to now is      390.6 secs

     total energy              =    -184.83183022 Ry
     estimated scf accuracy    <          1.1E-13 Ry

     iteration # 11     ecut=    80.00 Ry     beta= 0.20
     Davidson diagonalization with overlap

---- Real-time Memory Report at c_bands before calling an iterative solver
            87 MiB given to the printing process from OS
            63 MiB allocation reported by mallinfo(arena+hblkhd)
        244295 MiB available memory on the node where the printing process lives
------------------
     ethr =  1.00E-13,  avg # of iterations =  1.0

     total cpu time spent up to now is      391.5 secs

     total energy              =    -184.83183022 Ry
     estimated scf accuracy    <          3.4E-15 Ry

     iteration # 12     ecut=    80.00 Ry     beta= 0.20
     Davidson diagonalization with overlap

---- Real-time Memory Report at c_bands before calling an iterative solver
            87 MiB given to the printing process from OS
            63 MiB allocation reported by mallinfo(arena+hblkhd)
        244295 MiB available memory on the node where the printing process lives
------------------
     ethr =  1.00E-13,  avg # of iterations =  1.0

     total cpu time spent up to now is      392.4 secs

     total energy              =    -184.83183022 Ry
     estimated scf accuracy    <          1.9E-14 Ry

     iteration # 13     ecut=    80.00 Ry     beta= 0.20
     Davidson diagonalization with overlap

---- Real-time Memory Report at c_bands before calling an iterative solver
            87 MiB given to the printing process from OS
            63 MiB allocation reported by mallinfo(arena+hblkhd)
        244301 MiB available memory on the node where the printing process lives
------------------
     ethr =  1.00E-13,  avg # of iterations =  1.0

     total cpu time spent up to now is      393.3 secs

     total energy              =    -184.83183022 Ry
     estimated scf accuracy    <          1.0E-14 Ry

     iteration # 14     ecut=    80.00 Ry     beta= 0.20
     Davidson diagonalization with overlap

---- Real-time Memory Report at c_bands before calling an iterative solver
            87 MiB given to the printing process from OS
            63 MiB allocation reported by mallinfo(arena+hblkhd)
        244302 MiB available memory on the node where the printing process lives
------------------
     ethr =  1.00E-13,  avg # of iterations =  1.0

     total cpu time spent up to now is      394.2 secs

     total energy              =    -184.83183022 Ry
     estimated scf accuracy    <          8.0E-14 Ry

     iteration # 15     ecut=    80.00 Ry     beta= 0.20
     Davidson diagonalization with overlap

---- Real-time Memory Report at c_bands before calling an iterative solver
            87 MiB given to the printing process from OS
            63 MiB allocation reported by mallinfo(arena+hblkhd)
        244302 MiB available memory on the node where the printing process lives
------------------
     ethr =  1.00E-13,  avg # of iterations =  1.0

     total cpu time spent up to now is      395.1 secs

     total energy              =    -184.83183022 Ry
     estimated scf accuracy    <          9.3E-14 Ry

     iteration # 16     ecut=    80.00 Ry     beta= 0.20
     Davidson diagonalization with overlap

---- Real-time Memory Report at c_bands before calling an iterative solver
            87 MiB given to the printing process from OS
            63 MiB allocation reported by mallinfo(arena+hblkhd)
        244302 MiB available memory on the node where the printing process lives
------------------
     ethr =  1.00E-13,  avg # of iterations =  1.0

     total cpu time spent up to now is      396.0 secs

     total energy              =    -184.83183022 Ry
     estimated scf accuracy    <          1.5E-13 Ry

     iteration # 17     ecut=    80.00 Ry     beta= 0.20
     Davidson diagonalization with overlap

---- Real-time Memory Report at c_bands before calling an iterative solver
            87 MiB given to the printing process from OS
            63 MiB allocation reported by mallinfo(arena+hblkhd)
        244302 MiB available memory on the node where the printing process lives
------------------
     ethr =  1.00E-13,  avg # of iterations =  1.0

     total cpu time spent up to now is      396.9 secs

     total energy              =    -184.83183022 Ry
     estimated scf accuracy    <          1.3E-13 Ry

     iteration # 18     ecut=    80.00 Ry     beta= 0.20
     Davidson diagonalization with overlap

---- Real-time Memory Report at c_bands before calling an iterative solver
            87 MiB given to the printing process from OS
            63 MiB allocation reported by mallinfo(arena+hblkhd)
        244302 MiB available memory on the node where the printing process lives
------------------
     ethr =  1.00E-13,  avg # of iterations =  1.0

     total cpu time spent up to now is      397.8 secs

     total energy              =    -184.83183022 Ry
     estimated scf accuracy    <          1.2E-13 Ry

     iteration # 19     ecut=    80.00 Ry     beta= 0.20
     Davidson diagonalization with overlap

---- Real-time Memory Report at c_bands before calling an iterative solver
            87 MiB given to the printing process from OS
            63 MiB allocation reported by mallinfo(arena+hblkhd)
        244302 MiB available memory on the node where the printing process lives
------------------
     ethr =  1.00E-13,  avg # of iterations =  1.0

     total cpu time spent up to now is      398.8 secs

     total energy              =    -184.83183022 Ry
     estimated scf accuracy    <          5.8E-14 Ry

     iteration # 20     ecut=    80.00 Ry     beta= 0.20
     Davidson diagonalization with overlap

---- Real-time Memory Report at c_bands before calling an iterative solver
            87 MiB given to the printing process from OS
            63 MiB allocation reported by mallinfo(arena+hblkhd)
        244302 MiB available memory on the node where the printing process lives
------------------
     ethr =  1.00E-13,  avg # of iterations =  1.0

     total cpu time spent up to now is      399.7 secs

     total energy              =    -184.83183022 Ry
     estimated scf accuracy    <          4.7E-14 Ry

     iteration # 21     ecut=    80.00 Ry     beta= 0.20
     Davidson diagonalization with overlap

---- Real-time Memory Report at c_bands before calling an iterative solver
            87 MiB given to the printing process from OS
            63 MiB allocation reported by mallinfo(arena+hblkhd)
        244302 MiB available memory on the node where the printing process lives
------------------
     ethr =  1.00E-13,  avg # of iterations =  1.0

     total cpu time spent up to now is      400.6 secs

     total energy              =    -184.83183022 Ry
     estimated scf accuracy    <          9.1E-14 Ry

     iteration # 22     ecut=    80.00 Ry     beta= 0.20
     Davidson diagonalization with overlap

---- Real-time Memory Report at c_bands before calling an iterative solver
            87 MiB given to the printing process from OS
            63 MiB allocation reported by mallinfo(arena+hblkhd)
        244302 MiB available memory on the node where the printing process lives
------------------
     ethr =  1.00E-13,  avg # of iterations =  1.0

     total cpu time spent up to now is      401.5 secs

     total energy              =    -184.83183022 Ry
     estimated scf accuracy    <          6.5E-15 Ry

     iteration # 23     ecut=    80.00 Ry     beta= 0.20
     Davidson diagonalization with overlap

---- Real-time Memory Report at c_bands before calling an iterative solver
            87 MiB given to the printing process from OS
            63 MiB allocation reported by mallinfo(arena+hblkhd)
        244302 MiB available memory on the node where the printing process lives
------------------
     ethr =  1.00E-13,  avg # of iterations =  1.0

     total cpu time spent up to now is      402.4 secs

     total energy              =    -184.83183022 Ry
     estimated scf accuracy    <          4.8E-15 Ry

     iteration # 24     ecut=    80.00 Ry     beta= 0.20
     Davidson diagonalization with overlap

---- Real-time Memory Report at c_bands before calling an iterative solver
            87 MiB given to the printing process from OS
            63 MiB allocation reported by mallinfo(arena+hblkhd)
        244302 MiB available memory on the node where the printing process lives
------------------
     ethr =  1.00E-13,  avg # of iterations =  1.0

     total cpu time spent up to now is      403.3 secs

     total energy              =    -184.83183022 Ry
     estimated scf accuracy    <          8.3E-15 Ry

     iteration # 25     ecut=    80.00 Ry     beta= 0.20
     Davidson diagonalization with overlap

---- Real-time Memory Report at c_bands before calling an iterative solver
            87 MiB given to the printing process from OS
            63 MiB allocation reported by mallinfo(arena+hblkhd)
        244300 MiB available memory on the node where the printing process lives
------------------
     ethr =  1.00E-13,  avg # of iterations =  1.0

     total cpu time spent up to now is      404.2 secs

     total energy              =    -184.83183022 Ry
     estimated scf accuracy    <          2.1E-14 Ry

     iteration # 26     ecut=    80.00 Ry     beta= 0.20
     Davidson diagonalization with overlap

---- Real-time Memory Report at c_bands before calling an iterative solver
            87 MiB given to the printing process from OS
            63 MiB allocation reported by mallinfo(arena+hblkhd)
        244300 MiB available memory on the node where the printing process lives
------------------
     ethr =  1.00E-13,  avg # of iterations =  1.0

     total cpu time spent up to now is      405.1 secs

     total energy              =    -184.83183022 Ry
     estimated scf accuracy    <          1.2E-14 Ry

     iteration # 27     ecut=    80.00 Ry     beta= 0.20
     Davidson diagonalization with overlap

---- Real-time Memory Report at c_bands before calling an iterative solver
            87 MiB given to the printing process from OS
            63 MiB allocation reported by mallinfo(arena+hblkhd)
        244300 MiB available memory on the node where the printing process lives
------------------
     ethr =  1.00E-13,  avg # of iterations =  1.0

     total cpu time spent up to now is      406.0 secs

     total energy              =    -184.83183022 Ry
     estimated scf accuracy    <          1.6E-14 Ry

     iteration # 28     ecut=    80.00 Ry     beta= 0.20
     Davidson diagonalization with overlap

---- Real-time Memory Report at c_bands before calling an iterative solver
            87 MiB given to the printing process from OS
            63 MiB allocation reported by mallinfo(arena+hblkhd)
        244299 MiB available memory on the node where the printing process lives
------------------
     ethr =  1.00E-13,  avg # of iterations =  1.0

     total cpu time spent up to now is      406.9 secs

     total energy              =    -184.83183022 Ry
     estimated scf accuracy    <          4.9E-14 Ry

     iteration # 29     ecut=    80.00 Ry     beta= 0.20
     Davidson diagonalization with overlap

---- Real-time Memory Report at c_bands before calling an iterative solver
            87 MiB given to the printing process from OS
            63 MiB allocation reported by mallinfo(arena+hblkhd)
        244299 MiB available memory on the node where the printing process lives
------------------
     ethr =  1.00E-13,  avg # of iterations =  1.0

     total cpu time spent up to now is      407.8 secs

     total energy              =    -184.83183022 Ry
     estimated scf accuracy    <          5.2E-14 Ry

     iteration # 30     ecut=    80.00 Ry     beta= 0.20
     Davidson diagonalization with overlap

---- Real-time Memory Report at c_bands before calling an iterative solver
            87 MiB given to the printing process from OS
            63 MiB allocation reported by mallinfo(arena+hblkhd)
        244299 MiB available memory on the node where the printing process lives
------------------
     ethr =  1.00E-13,  avg # of iterations =  1.0

     total cpu time spent up to now is      408.8 secs

     total energy              =    -184.83183022 Ry
     estimated scf accuracy    <          6.0E-14 Ry

     iteration # 31     ecut=    80.00 Ry     beta= 0.20
     Davidson diagonalization with overlap

---- Real-time Memory Report at c_bands before calling an iterative solver
            87 MiB given to the printing process from OS
            63 MiB allocation reported by mallinfo(arena+hblkhd)
        244299 MiB available memory on the node where the printing process lives
------------------
     ethr =  1.00E-13,  avg # of iterations =  1.0

     total cpu time spent up to now is      409.7 secs

     total energy              =    -184.83183022 Ry
     estimated scf accuracy    <          3.2E-14 Ry

     iteration # 32     ecut=    80.00 Ry     beta= 0.20
     Davidson diagonalization with overlap

---- Real-time Memory Report at c_bands before calling an iterative solver
            87 MiB given to the printing process from OS
            63 MiB allocation reported by mallinfo(arena+hblkhd)
        244299 MiB available memory on the node where the printing process lives
------------------
     ethr =  1.00E-13,  avg # of iterations =  1.0

     total cpu time spent up to now is      410.5 secs

     total energy              =    -184.83183022 Ry
     estimated scf accuracy    <          2.1E-15 Ry

     iteration # 33     ecut=    80.00 Ry     beta= 0.20
     Davidson diagonalization with overlap

---- Real-time Memory Report at c_bands before calling an iterative solver
            87 MiB given to the printing process from OS
            63 MiB allocation reported by mallinfo(arena+hblkhd)
        244299 MiB available memory on the node where the printing process lives
------------------
     ethr =  1.00E-13,  avg # of iterations =  1.0

     total cpu time spent up to now is      411.5 secs

     total energy              =    -184.83183022 Ry
     estimated scf accuracy    <          5.5E-15 Ry

     iteration # 34     ecut=    80.00 Ry     beta= 0.20
     Davidson diagonalization with overlap

---- Real-time Memory Report at c_bands before calling an iterative solver
            87 MiB given to the printing process from OS
            63 MiB allocation reported by mallinfo(arena+hblkhd)
        244300 MiB available memory on the node where the printing process lives
------------------
     ethr =  1.00E-13,  avg # of iterations =  1.0

     total cpu time spent up to now is      412.4 secs

     total energy              =    -184.83183022 Ry
     estimated scf accuracy    <          1.2E-14 Ry

     iteration # 35     ecut=    80.00 Ry     beta= 0.20
     Davidson diagonalization with overlap

---- Real-time Memory Report at c_bands before calling an iterative solver
            87 MiB given to the printing process from OS
            63 MiB allocation reported by mallinfo(arena+hblkhd)
        244300 MiB available memory on the node where the printing process lives
------------------
     ethr =  1.00E-13,  avg # of iterations =  1.0

     total cpu time spent up to now is      413.3 secs

     total energy              =    -184.83183022 Ry
     estimated scf accuracy    <          6.1E-15 Ry

     iteration # 36     ecut=    80.00 Ry     beta= 0.20
     Davidson diagonalization with overlap

---- Real-time Memory Report at c_bands before calling an iterative solver
            87 MiB given to the printing process from OS
            63 MiB allocation reported by mallinfo(arena+hblkhd)
        244302 MiB available memory on the node where the printing process lives
------------------
     ethr =  1.00E-13,  avg # of iterations =  1.0

     total cpu time spent up to now is      414.2 secs

     total energy              =    -184.83183022 Ry
     estimated scf accuracy    <          3.6E-14 Ry

     iteration # 37     ecut=    80.00 Ry     beta= 0.20
     Davidson diagonalization with overlap

---- Real-time Memory Report at c_bands before calling an iterative solver
            87 MiB given to the printing process from OS
            63 MiB allocation reported by mallinfo(arena+hblkhd)
        244302 MiB available memory on the node where the printing process lives
------------------
     ethr =  1.00E-13,  avg # of iterations =  1.0

     total cpu time spent up to now is      415.1 secs

     total energy              =    -184.83183022 Ry
     estimated scf accuracy    <          1.1E-14 Ry

     iteration # 38     ecut=    80.00 Ry     beta= 0.20
     Davidson diagonalization with overlap

---- Real-time Memory Report at c_bands before calling an iterative solver
            87 MiB given to the printing process from OS
            63 MiB allocation reported by mallinfo(arena+hblkhd)
        244302 MiB available memory on the node where the printing process lives
------------------
     ethr =  1.00E-13,  avg # of iterations =  1.0

     total cpu time spent up to now is      416.0 secs

     End of self-consistent calculation

          k = 0.0000 0.0000 0.0000 ( 14903 PWs)   bands (ev):

   -66.6868 -40.8920 -40.6290 -40.6290 -20.1838 -18.8200 -11.7313  -8.5914
    -8.5914  -7.8013  -7.4348  -7.4348  -6.0269

     occupation numbers 
     1.0000   1.0000   1.0000   1.0000   1.0000   1.0000   1.0000   1.0000
     1.0000   1.0000   1.0000   1.0000   1.0000

          k = 0.0000 0.0550 0.0000 ( 14887 PWs)   bands (ev):

   -66.6858 -40.8900 -40.6389 -40.6313 -20.1479 -18.8054 -11.6902  -8.6732
    -8.5537  -8.0203  -7.4938  -7.2669  -6.0395

     occupation numbers 
     1.0000   1.0000   1.0000   1.0000   1.0000   1.0000   1.0000   1.0000
     1.0000   1.0000   1.0000   1.0000   1.0000

          k = 0.0000 0.1100 0.0000 ( 14865 PWs)   bands (ev):

   -66.6829 -40.8844 -40.6673 -40.6377 -20.0418 -18.7623 -11.5727  -8.8965
    -8.4429  -8.3780  -7.6552  -7.0773  -6.0884

     occupation numbers 
     1.0000   1.0000   1.0000   1.0000   1.0000   1.0000   1.0000   1.0000
     1.0000   1.0000   1.0000   1.0000   1.0000

          k = 0.0000 0.1650 0.0000 ( 14863 PWs)   bands (ev):

   -66.6784 -40.8756 -40.7117 -40.6478 -19.8711 -18.6928 -11.3981  -9.2066
    -8.7604  -8.2668  -7.8836  -7.0090  -6.2024

     occupation numbers 
     1.0000   1.0000   1.0000   1.0000   1.0000   1.0000   1.0000   1.0000
     1.0000   1.0000   1.0000   1.0000   1.0000

          k = 0.0000 0.2199 0.0000 ( 14819 PWs)   bands (ev):

   -66.6727 -40.8643 -40.7678 -40.6606 -19.6446 -18.6010 -11.2100  -9.5307
    -9.1507  -8.1417  -8.0387  -7.0794  -6.4046

     occupation numbers 
     1.0000   1.0000   1.0000   1.0000   1.0000   1.0000   1.0000   1.0000
     1.0000   1.0000   1.0000   1.0000   1.0000

          k = 0.0000 0.2749 0.0000 ( 14799 PWs)   bands (ev):

   -66.6662 -40.8516 -40.8304 -40.6749 -19.3752 -18.4924 -11.0942  -9.7797
    -9.5409  -8.3999  -7.7783  -7.2436  -6.6666

     occupation numbers 
     1.0000   1.0000   1.0000   1.0000   1.0000   1.0000   1.0000   1.0000
     1.0000   1.0000   1.0000   1.0000   1.0000

          k = 0.0000 0.3299 0.0000 ( 14811 PWs)   bands (ev):

   -66.6595 -40.8937 -40.8385 -40.6896 -19.0805 -18.3749 -11.1491  -9.9192
    -9.8841  -8.6375  -7.5110  -7.4356  -6.8959

     occupation numbers 
     1.0000   1.0000   1.0000   1.0000   1.0000   1.0000   1.0000   1.0000
     1.0000   1.0000   1.0000   1.0000   1.0000

          k = 0.0000 0.3849 0.0000 ( 14770 PWs)   bands (ev):

   -66.6533 -40.9523 -40.8263 -40.7032 -18.7832 -18.2584 -11.3489 -10.2669
    -9.9123  -8.8403  -7.6082  -7.2653  -6.9890

     occupation numbers 
     1.0000   1.0000   1.0000   1.0000   1.0000   1.0000   1.0000   1.0000
     1.0000   1.0000   1.0000   1.0000   1.0000

          k = 0.0000 0.4399 0.0000 ( 14726 PWs)   bands (ev):

   -66.6481 -41.0011 -40.8160 -40.7146 -18.5123 -18.1547 -11.5848 -10.5596
    -9.9706  -8.9991  -7.7399  -7.0669  -6.9166

     occupation numbers 
     1.0000   1.0000   1.0000   1.0000   1.0000   1.0000   1.0000   1.0000
     1.0000   1.0000   1.0000   1.0000   1.0000

          k = 0.0000 0.4949 0.0000 ( 14720 PWs)   bands (ev):

   -66.6443 -41.0361 -40.8086 -40.7228 -18.3019 -18.0763 -11.7812 -10.7722
   -10.0564  -9.1078  -7.8256  -6.9320  -6.7581

     occupation numbers 
     1.0000   1.0000   1.0000   1.0000   1.0000   1.0000   1.0000   1.0000
     1.0000   1.0000   1.0000   1.0000   1.0000

          k = 0.0000 0.5499 0.0000 ( 14732 PWs)   bands (ev):

   -66.6423 -41.0543 -40.8047 -40.7271 -18.1857 -18.0338 -11.8920 -10.8842
   -10.1168  -9.1630  -7.8672  -6.8650  -6.6366

     occupation numbers 
     1.0000   1.0000   1.0000   1.0000   1.0000   1.0000   1.0000   1.0000
     1.0000   1.0000   1.0000   1.0000   1.0000

          k = 0.0476 0.0825 0.0000 ( 14879 PWs)   bands (ev):

   -66.6839 -40.8862 -40.6578 -40.6358 -20.0769 -18.7765 -11.6108  -8.8251
    -8.4800  -8.2737  -7.6198  -7.1061  -6.0702

     occupation numbers 
     1.0000   1.0000   1.0000   1.0000   1.0000   1.0000   1.0000   1.0000
     1.0000   1.0000   1.0000   1.0000   1.0000

          k = 0.0476 0.1375 0.0000 ( 14866 PWs)   bands (ev):

   -66.6802 -40.8790 -40.6938 -40.6445 -19.9385 -18.7202 -11.4637  -9.0895
    -8.6060  -8.3390  -7.8505  -6.9738  -6.1515

     occupation numbers 
     1.0000   1.0000   1.0000   1.0000   1.0000   1.0000   1.0000   1.0000
     1.0000   1.0000   1.0000   1.0000   1.0000

          k = 0.0476 0.1925 0.0000 ( 14822 PWs)   bands (ev):

   -66.6751 -40.8689 -40.7434 -40.6566 -19.7397 -18.6394 -11.2782  -9.4034
    -8.9654  -8.1431  -8.1294  -6.9596  -6.3109

     occupation numbers 
     1.0000   1.0000   1.0000   1.0000   1.0000   1.0000   1.0000   1.0000
     1.0000   1.0000   1.0000   1.0000   1.0000

          k = 0.0476 0.2474 0.0000 ( 14793 PWs)   bands (ev):

   -66.6689 -40.8569 -40.8019 -40.6709 -19.4915 -18.5389 -11.1172  -9.6868
    -9.3419  -8.4076  -7.9136  -7.0676  -6.5459

     occupation numbers 
     1.0000   1.0000   1.0000   1.0000   1.0000   1.0000   1.0000   1.0000
     1.0000   1.0000   1.0000   1.0000   1.0000

          k = 0.0476 0.3024 0.0000 ( 14818 PWs)   bands (ev):

   -66.6624 -40.8640 -40.8441 -40.6863 -19.2088 -18.4252 -11.0840  -9.8487
    -9.7267  -8.6523  -7.6834  -7.2492  -6.7854

     occupation numbers 
     1.0000   1.0000   1.0000   1.0000   1.0000   1.0000   1.0000   1.0000
     1.0000   1.0000   1.0000   1.0000   1.0000

          k = 0.0476 0.3574 0.0000 ( 14790 PWs)   bands (ev):

   -66.6559 -40.9242 -40.8314 -40.7012 -18.9117 -18.3073 -11.2240 -10.1000
    -9.8856  -8.8493  -7.4980  -7.4472  -6.9058

     occupation numbers 
     1.0000   1.0000   1.0000   1.0000   1.0000   1.0000   1.0000   1.0000
     1.0000   1.0000   1.0000   1.0000   1.0000

          k = 0.0476 0.4124 0.0000 ( 14761 PWs)   bands (ev):

   -66.6502 -40.9771 -40.8202 -40.7145 -18.6258 -18.1961 -11.4483 -10.4334
    -9.9176  -8.9974  -7.6226  -7.3644  -6.8476

     occupation numbers 
     1.0000   1.0000   1.0000   1.0000   1.0000   1.0000   1.0000   1.0000
     1.0000   1.0000   1.0000   1.0000   1.0000

          k = 0.0476 0.4674 0.0000 ( 14735 PWs)   bands (ev):

   -66.6457 -41.0185 -40.8114 -40.7249 -18.3829 -18.1037 -11.6644 -10.6976
    -9.9965  -9.0997  -7.7551  -7.2359  -6.6998

     occupation numbers 
     1.0000   1.0000   1.0000   1.0000   1.0000   1.0000   1.0000   1.0000
     1.0000   1.0000   1.0000   1.0000   1.0000

          k = 0.0476 0.5224 0.0000 ( 14722 PWs)   bands (ev):

   -66.6428 -41.0447 -40.8057 -40.7315 -18.2175 -18.0422 -11.8170 -10.8675
   -10.0784  -9.1597  -7.8362  -7.1351  -6.5579

     occupation numbers 
     1.0000   1.0000   1.0000   1.0000   1.0000   1.0000   1.0000   1.0000
     1.0000   1.0000   1.0000   1.0000   1.0000

          k = 0.0476 0.5774 0.0000 ( 14726 PWs)   bands (ev):

   -66.6418 -41.0537 -40.8038 -40.7337 -18.1584 -18.0206 -11.8721 -10.9261
   -10.1119  -9.1795  -7.8634  -7.0986  -6.4983

     occupation numbers 
     1.0000   1.0000   1.0000   1.0000   1.0000   1.0000   1.0000   1.0000
     1.0000   1.0000   1.0000   1.0000   1.0000

          k = 0.0952 0.1650 0.0000 ( 14831 PWs)   bands (ev):

   -66.6759 -40.8706 -40.7342 -40.6560 -19.7719 -18.6524 -11.3027  -9.3542
    -8.8737  -8.1834  -8.1804  -6.8807  -6.2787

     occupation numbers 
     1.0000   1.0000   1.0000   1.0000   1.0000   1.0000   1.0000   1.0000
     1.0000   1.0000   1.0000   1.0000   1.0000

          k = 0.0952 0.2199 0.0000 ( 14819 PWs)   bands (ev):

   -66.6704 -40.8598 -40.7848 -40.6711 -19.5512 -18.5626 -11.1333  -9.6223
    -9.1712  -8.5372  -8.0020  -6.8852  -6.4755

     occupation numbers 
     1.0000   1.0000   1.0000   1.0000   1.0000   1.0000   1.0000   1.0000
     1.0000   1.0000   1.0000   1.0000   1.0000

          k = 0.0952 0.2749 0.0000 ( 14797 PWs)   bands (ev):

   -66.6642 -40.8476 -40.8411 -40.6882 -19.2888 -18.4562 -11.0406  -9.8053
    -9.5235  -8.8255  -7.8395  -7.0012  -6.6933

     occupation numbers 
     1.0000   1.0000   1.0000   1.0000   1.0000   1.0000   1.0000   1.0000
     1.0000   1.0000   1.0000   1.0000   1.0000

          k = 0.0952 0.3299 0.0000 ( 14799 PWs)   bands (ev):

   -66.6578 -40.8981 -40.8351 -40.7057 -19.0022 -18.3409 -11.1066  -9.9188
    -9.8493  -9.0116  -7.7532  -7.1911  -6.8203

     occupation numbers 
     1.0000   1.0000   1.0000   1.0000   1.0000   1.0000   1.0000   1.0000
     1.0000   1.0000   1.0000   1.0000   1.0000

          k = 0.0952 0.3849 0.0000 ( 14775 PWs)   bands (ev):

   -66.6519 -40.9509 -40.8235 -40.7220 -18.7138 -18.2262 -11.2900 -10.3036
    -9.8457  -9.1180  -7.7286  -7.4052  -6.7915

     occupation numbers 
     1.0000   1.0000   1.0000   1.0000   1.0000   1.0000   1.0000   1.0000
     1.0000   1.0000   1.0000   1.0000   1.0000

          k = 0.0952 0.4399 0.0000 ( 14747 PWs)   bands (ev):

   -66.6469 -40.9949 -40.8137 -40.7357 -18.4519 -18.1238 -11.4959 -10.6306
    -9.9001  -9.1705  -7.6755  -7.6033  -6.6655

     occupation numbers 
     1.0000   1.0000   1.0000   1.0000   1.0000   1.0000   1.0000   1.0000
     1.0000   1.0000   1.0000   1.0000   1.0000

          k = 0.0952 0.4949 0.0000 ( 14735 PWs)   bands (ev):

   -66.6433 -41.0264 -40.8066 -40.7455 -18.2494 -18.0461 -11.6640 -10.8671
    -9.9959  -9.1896  -7.7553  -7.5960  -6.5124

     occupation numbers 
     1.0000   1.0000   1.0000   1.0000   1.0000   1.0000   1.0000   1.0000
     1.0000   1.0000   1.0000   1.0000   1.0000

          k = 0.0952 0.5499 0.0000 ( 14720 PWs)   bands (ev):

   -66.6414 -41.0428 -40.8029 -40.7507 -18.1379 -18.0039 -11.7580 -10.9911
   -10.0651  -9.1931  -7.8383  -7.5439  -6.4027

     occupation numbers 
     1.0000   1.0000   1.0000   1.0000   1.0000   1.0000   1.0000   1.0000
     1.0000   1.0000   1.0000   1.0000   1.0000

          k = 0.1429 0.2474 0.0000 ( 14805 PWs)   bands (ev):

   -66.6648 -40.8488 -40.8322 -40.6899 -19.3160 -18.4667 -11.0253  -9.7858
    -9.4018  -8.9491  -7.8997  -6.8902  -6.6595

     occupation numbers 
     1.0000   1.0000   1.0000   1.0000   1.0000   1.0000   1.0000   1.0000
     1.0000   1.0000   1.0000   1.0000   1.0000

          k = 0.1429 0.3024 0.0000 ( 14800 PWs)   bands (ev):

   -66.6588 -40.8816 -40.8371 -40.7109 -19.0489 -18.3578 -11.0341  -9.8226
    -9.7563  -9.1909  -7.9080  -7.0032  -6.7765

     occupation numbers 
     1.0000   1.0000   1.0000   1.0000   1.0000   1.0000   1.0000   1.0000
     1.0000   1.0000   1.0000   1.0000   1.0000

          k = 0.1429 0.3574 0.0000 ( 14795 PWs)   bands (ev):

   -66.6529 -40.9291 -40.8256 -40.7319 -18.7693 -18.2443 -11.1590 -10.1809
    -9.7753  -9.2743  -8.0172  -7.1968  -6.7710

     occupation numbers 
     1.0000   1.0000   1.0000   1.0000   1.0000   1.0000   1.0000   1.0000
     1.0000   1.0000   1.0000   1.0000   1.0000

          k = 0.1429 0.4124 0.0000 ( 14779 PWs)   bands (ev):

   -66.6477 -40.9708 -40.8153 -40.7508 -18.5021 -18.1366 -11.3240 -10.5686
    -9.7759  -9.2812  -8.1021  -7.4238  -6.6739

     occupation numbers 
     1.0000   1.0000   1.0000   1.0000   1.0000   1.0000   1.0000   1.0000
     1.0000   1.0000   1.0000   1.0000   1.0000

          k = 0.1429 0.4674 0.0000 ( 14755 PWs)   bands (ev):

   -66.6436 -41.0032 -40.8073 -40.7657 -18.2768 -18.0467 -11.4715 -10.8721
    -9.8678  -9.2474  -8.1042  -7.6383  -6.5245

     occupation numbers 
     1.0000   1.0000   1.0000   1.0000   1.0000   1.0000   1.0000   1.0000
     1.0000   1.0000   1.0000   1.0000   1.0000

          k = 0.1429 0.5224 0.0000 ( 14748 PWs)   bands (ev):

   -66.6410 -41.0237 -40.8021 -40.7753 -18.1246 -17.9866 -11.5709 -11.0649
    -9.9763  -9.2035  -8.0740  -7.7959  -6.3755

     occupation numbers 
     1.0000   1.0000   1.0000   1.0000   1.0000   1.0000   1.0000   1.0000
     1.0000   1.0000   1.0000   1.0000   1.0000

          k = 0.1429 0.5774 0.0000 ( 14726 PWs)   bands (ev):

   -66.6401 -41.0308 -40.8003 -40.7785 -18.0706 -17.9654 -11.6059 -11.1310
   -10.0219  -9.1831  -8.0596  -7.8551  -6.3102

     occupation numbers 
     1.0000   1.0000   1.0000   1.0000   1.0000   1.0000   1.0000   1.0000
     1.0000   1.0000   1.0000   1.0000   1.0000

          k = 0.1905 0.3299 0.0000 ( 14785 PWs)   bands (ev):

   -66.6533 -40.9203 -40.8263 -40.7367 -18.7883 -18.2504 -11.1073 -10.1224
    -9.7435  -9.3502  -8.1303  -7.1109  -6.7669

     occupation numbers 
     1.0000   1.0000   1.0000   1.0000   1.0000   1.0000   1.0000   1.0000
     1.0000   1.0000   1.0000   1.0000   1.0000

          k = 0.1905 0.3849 0.0000 ( 14761 PWs)   bands (ev):

   -66.6481 -40.9544 -40.8162 -40.7625 -18.5284 -18.1428 -11.2124 -10.5267
    -9.6657  -9.3623  -8.3920  -7.3027  -6.6893

     occupation numbers 
     1.0000   1.0000   1.0000   1.0000   1.0000   1.0000   1.0000   1.0000
     1.0000   1.0000   1.0000   1.0000   1.0000

          k = 0.1905 0.4399 0.0000 ( 14749 PWs)   bands (ev):

   -66.6438 -40.9818 -40.8077 -40.7853 -18.2953 -18.0461 -11.3037 -10.8759
    -9.7003  -9.3027  -8.5593  -7.5323  -6.5530

     occupation numbers 
     1.0000   1.0000   1.0000   1.0000   1.0000   1.0000   1.0000   1.0000
     1.0000   1.0000   1.0000   1.0000   1.0000

          k = 0.1905 0.4949 0.0000 ( 14738 PWs)   bands (ev):

   -66.6407 -41.0008 -40.8023 -40.8016 -18.1173 -17.9722 -11.3608 -11.1281
    -9.8378  -9.2138  -8.6073  -7.7460  -6.3810

     occupation numbers 
     1.0000   1.0000   1.0000   1.0000   1.0000   1.0000   1.0000   1.0000
     1.0000   1.0000   1.0000   1.0000   1.0000

          k = 0.1905 0.5499 0.0000 ( 14758 PWs)   bands (ev):

   -66.6391 -41.0106 -40.8114 -40.7984 -18.0203 -17.9319 -11.3844 -11.2600
    -9.9515  -9.1441  -8.6094  -7.8816  -6.2499

     occupation numbers 
     1.0000   1.0000   1.0000   1.0000   1.0000   1.0000   1.0000   1.0000
     1.0000   1.0000   1.0000   1.0000   1.0000

          k = 0.2381 0.4124 0.0000 ( 14762 PWs)   bands (ev):

   -66.6439 -40.9725 -40.8079 -40.7940 -18.3018 -18.0456 -11.2358 -10.8772
    -9.5903  -9.3252  -8.7781  -7.4894  -6.5664

     occupation numbers 
     1.0000   1.0000   1.0000   1.0000   1.0000   1.0000   1.0000   1.0000
     1.0000   1.0000   1.0000   1.0000   1.0000

          k = 0.2381 0.4674 0.0000 ( 14743 PWs)   bands (ev):

   -66.6406 -40.9833 -40.8221 -40.8013 -18.1142 -17.9639 -11.2135 -11.1643
    -9.6530  -9.2212  -9.0351  -7.7108  -6.3912

     occupation numbers 
     1.0000   1.0000   1.0000   1.0000   1.0000   1.0000   1.0000   1.0000
     1.0000   1.0000   1.0000   1.0000   1.0000

          k = 0.2381 0.5224 0.0000 ( 14764 PWs)   bands (ev):

   -66.6384 -40.9881 -40.8421 -40.7971 -17.9895 -17.9089 -11.3501 -11.1590
    -9.8431  -9.1074  -9.1045  -7.9043  -6.2104

     occupation numbers 
     1.0000   1.0000   1.0000   1.0000   1.0000   1.0000   1.0000   1.0000
     1.0000   1.0000   1.0000   1.0000   1.0000

          k = 0.2381 0.5774 0.0000 ( 14780 PWs)   bands (ev):

   -66.6377 -40.9892 -40.8495 -40.7957 -17.9458 -17.8895 -11.4143 -11.1264
    -9.9422  -9.1158  -9.0491  -7.9865  -6.1283

     occupation numbers 
     1.0000   1.0000   1.0000   1.0000   1.0000   1.0000   1.0000   1.0000
     1.0000   1.0000   1.0000   1.0000   1.0000

          k = 0.2857 0.4949 0.0000 ( 14734 PWs)   bands (ev):

   -66.6382 -40.9766 -40.8565 -40.7967 -17.9792 -17.9007 -11.3823 -11.0550
    -9.7318  -9.3787  -9.0883  -7.9130  -6.1958

     occupation numbers 
     1.0000   1.0000   1.0000   1.0000   1.0000   1.0000   1.0000   1.0000
     1.0000   1.0000   1.0000   1.0000   1.0000

          k = 0.2857 0.5499 0.0000 ( 14738 PWs)   bands (ev):

   -66.6370 -40.9673 -40.8803 -40.7943 -17.9071 -17.8662 -11.4989 -10.8844
    -9.9754  -9.4505  -8.9740  -8.0642  -6.0439

     occupation numbers 
     1.0000   1.0000   1.0000   1.0000   1.0000   1.0000   1.0000   1.0000
     1.0000   1.0000   1.0000   1.0000   1.0000

          k = 0.3333 0.5774 0.0000 ( 14760 PWs)   bands (ev):

   -66.6365 -40.9516 -40.9019 -40.7933 -17.8786 -17.8511 -11.5510 -10.6848
   -10.1610  -9.5346  -8.9084  -8.1397  -5.9683

     occupation numbers 
     1.0000   1.0000   1.0000   1.0000   1.0000   1.0000   1.0000   1.0000
     1.0000   1.0000   1.0000   1.0000   1.0000

     highest occupied level (ev):    -5.9683

!    total energy              =    -184.83183022 Ry
     estimated scf accuracy    <          2.7E-16 Ry

     convergence has been achieved in  38 iterations

     Forces acting on atoms (cartesian axes, Ry/au):

     atom    1 type  1   force =     0.00000000   -0.00000000    0.00000000
     atom    2 type  2   force =    -0.00000000    0.00000000   -0.00000056
     atom    3 type  2   force =     0.00000000    0.00000000    0.00000056
     The non-local contrib.  to forces
     atom    1 type  1   force =     0.00000000    0.00000000    0.00000000
     atom    2 type  2   force =     0.00000000    0.00000000   -0.25592303
     atom    3 type  2   force =     0.00000000    0.00000000    0.25592303
     The ionic contribution  to forces
     atom    1 type  1   force =     0.00000001    0.00000097    0.00000000
     atom    2 type  2   force =    -0.00000000   -0.00000048   46.86190597
     atom    3 type  2   force =    -0.00000000   -0.00000048  -46.86190597
     The local contribution  to forces
     atom    1 type  1   force =     0.00000000    0.00002380    0.00000000
     atom    2 type  2   force =    -0.00000001    0.00000001  -46.61017088
     atom    3 type  2   force =    -0.00000001    0.00000001   46.61017088
     The core correction contribution to forces
     atom    1 type  1   force =     0.00000000   -0.00000040   -0.00000000
     atom    2 type  2   force =     0.00000000   -0.00000000    0.00418734
     atom    3 type  2   force =     0.00000000   -0.00000000   -0.00418734
     The Hubbard contrib.    to forces
     atom    1 type  1   force =     0.00000000    0.00000000    0.00000000
     atom    2 type  2   force =     0.00000000    0.00000000    0.00000000
     atom    3 type  2   force =     0.00000000    0.00000000    0.00000000
     The SCF correction term to forces
     atom    1 type  1   force =    -0.00000000   -0.00000000   -0.00000000
     atom    2 type  2   force =     0.00000000    0.00000000    0.00000004
     atom    3 type  2   force =    -0.00000000   -0.00000000   -0.00000004

     Total force =     0.000001     Total SCF correction =     0.000000

     Entering Dynamics:    iteration =    10

     <vel(dt)|acc(dt)> =  -1.00000000

ATOMIC_POSITIONS (crystal)
Mo               0.3333333000        0.6666666000        0.5000000000    0   0   0
S                0.6666666670        0.3333333330        0.5735812649    0   0   1
S                0.6666666670        0.3333333330        0.4264187351    0   0   1



     Writing config-only to output data dir ./tmp/MoS2.save/ :
     XML data file
     NEW-OLD atomic charge density approx. for the potential

     total cpu time spent up to now is      416.2 secs

     per-process dynamical memory:    64.5 Mb

     Self-consistent Calculation

     iteration #  1     ecut=    80.00 Ry     beta= 0.20
     Davidson diagonalization with overlap

---- Real-time Memory Report at c_bands before calling an iterative solver
            88 MiB given to the printing process from OS
            63 MiB allocation reported by mallinfo(arena+hblkhd)
        244302 MiB available memory on the node where the printing process lives
------------------
     ethr =  1.00E-06,  avg # of iterations =  1.0

     Threshold (ethr) on eigenvalues was too large:
     Diagonalizing with lowered threshold

     Davidson diagonalization with overlap

---- Real-time Memory Report at c_bands before calling an iterative solver
            88 MiB given to the printing process from OS
            63 MiB allocation reported by mallinfo(arena+hblkhd)
        244302 MiB available memory on the node where the printing process lives
------------------
     ethr =  1.00E-13,  avg # of iterations =  1.0

     total cpu time spent up to now is      417.9 secs

     total energy              =    -184.83183022 Ry
     estimated scf accuracy    <          1.4E-13 Ry

     iteration #  2     ecut=    80.00 Ry     beta= 0.20
     Davidson diagonalization with overlap

---- Real-time Memory Report at c_bands before calling an iterative solver
            88 MiB given to the printing process from OS
            63 MiB allocation reported by mallinfo(arena+hblkhd)
        244302 MiB available memory on the node where the printing process lives
------------------
     ethr =  1.00E-13,  avg # of iterations =  1.0

     total cpu time spent up to now is      418.9 secs

     total energy              =    -184.83183022 Ry
     estimated scf accuracy    <          1.5E-14 Ry

     iteration #  3     ecut=    80.00 Ry     beta= 0.20
     Davidson diagonalization with overlap

---- Real-time Memory Report at c_bands before calling an iterative solver
            88 MiB given to the printing process from OS
            63 MiB allocation reported by mallinfo(arena+hblkhd)
        244302 MiB available memory on the node where the printing process lives
------------------
     ethr =  1.00E-13,  avg # of iterations =  1.0

     total cpu time spent up to now is      419.8 secs

     total energy              =    -184.83183022 Ry
     estimated scf accuracy    <          2.3E-14 Ry

     iteration #  4     ecut=    80.00 Ry     beta= 0.20
     Davidson diagonalization with overlap

---- Real-time Memory Report at c_bands before calling an iterative solver
            88 MiB given to the printing process from OS
            63 MiB allocation reported by mallinfo(arena+hblkhd)
        244302 MiB available memory on the node where the printing process lives
------------------
     ethr =  1.00E-13,  avg # of iterations =  1.0

     total cpu time spent up to now is      420.7 secs

     total energy              =    -184.83183022 Ry
     estimated scf accuracy    <          9.2E-15 Ry

     iteration #  5     ecut=    80.00 Ry     beta= 0.20
     Davidson diagonalization with overlap

---- Real-time Memory Report at c_bands before calling an iterative solver
            88 MiB given to the printing process from OS
            63 MiB allocation reported by mallinfo(arena+hblkhd)
        244301 MiB available memory on the node where the printing process lives
------------------
     ethr =  1.00E-13,  avg # of iterations =  1.0

     total cpu time spent up to now is      421.6 secs

     total energy              =    -184.83183022 Ry
     estimated scf accuracy    <          5.8E-15 Ry

     iteration #  6     ecut=    80.00 Ry     beta= 0.20
     Davidson diagonalization with overlap

---- Real-time Memory Report at c_bands before calling an iterative solver
            88 MiB given to the printing process from OS
            63 MiB allocation reported by mallinfo(arena+hblkhd)
        244301 MiB available memory on the node where the printing process lives
------------------
     ethr =  1.00E-13,  avg # of iterations =  1.0

     total cpu time spent up to now is      422.5 secs

     total energy              =    -184.83183022 Ry
     estimated scf accuracy    <          1.3E-15 Ry

     iteration #  7     ecut=    80.00 Ry     beta= 0.20
     Davidson diagonalization with overlap

---- Real-time Memory Report at c_bands before calling an iterative solver
            88 MiB given to the printing process from OS
            63 MiB allocation reported by mallinfo(arena+hblkhd)
        244301 MiB available memory on the node where the printing process lives
------------------
     ethr =  1.00E-13,  avg # of iterations =  1.0

     total cpu time spent up to now is      423.4 secs

     total energy              =    -184.83183022 Ry
     estimated scf accuracy    <          5.1E-14 Ry

     iteration #  8     ecut=    80.00 Ry     beta= 0.20
     Davidson diagonalization with overlap

---- Real-time Memory Report at c_bands before calling an iterative solver
            88 MiB given to the printing process from OS
            63 MiB allocation reported by mallinfo(arena+hblkhd)
        244301 MiB available memory on the node where the printing process lives
------------------
     ethr =  1.00E-13,  avg # of iterations =  1.0

     total cpu time spent up to now is      424.3 secs

     total energy              =    -184.83183022 Ry
     estimated scf accuracy    <          1.4E-14 Ry

     iteration #  9     ecut=    80.00 Ry     beta= 0.20
     Davidson diagonalization with overlap

---- Real-time Memory Report at c_bands before calling an iterative solver
            88 MiB given to the printing process from OS
            63 MiB allocation reported by mallinfo(arena+hblkhd)
        244301 MiB available memory on the node where the printing process lives
------------------
     ethr =  1.00E-13,  avg # of iterations =  1.0

     total cpu time spent up to now is      425.2 secs

     total energy              =    -184.83183022 Ry
     estimated scf accuracy    <          3.4E-15 Ry

     iteration # 10     ecut=    80.00 Ry     beta= 0.20
     Davidson diagonalization with overlap

---- Real-time Memory Report at c_bands before calling an iterative solver
            88 MiB given to the printing process from OS
            63 MiB allocation reported by mallinfo(arena+hblkhd)
        244301 MiB available memory on the node where the printing process lives
------------------
     ethr =  1.00E-13,  avg # of iterations =  1.0

     total cpu time spent up to now is      426.1 secs

     End of self-consistent calculation

          k = 0.0000 0.0000 0.0000 ( 14903 PWs)   bands (ev):

   -66.6868 -40.8920 -40.6290 -40.6290 -20.1838 -18.8200 -11.7313  -8.5914
    -8.5914  -7.8013  -7.4348  -7.4348  -6.0269

     occupation numbers 
     1.0000   1.0000   1.0000   1.0000   1.0000   1.0000   1.0000   1.0000
     1.0000   1.0000   1.0000   1.0000   1.0000

          k = 0.0000 0.0550 0.0000 ( 14887 PWs)   bands (ev):

   -66.6858 -40.8900 -40.6389 -40.6313 -20.1479 -18.8054 -11.6902  -8.6732
    -8.5537  -8.0203  -7.4938  -7.2669  -6.0395

     occupation numbers 
     1.0000   1.0000   1.0000   1.0000   1.0000   1.0000   1.0000   1.0000
     1.0000   1.0000   1.0000   1.0000   1.0000

          k = 0.0000 0.1100 0.0000 ( 14865 PWs)   bands (ev):

   -66.6829 -40.8844 -40.6673 -40.6377 -20.0418 -18.7623 -11.5727  -8.8965
    -8.4429  -8.3780  -7.6552  -7.0773  -6.0884

     occupation numbers 
     1.0000   1.0000   1.0000   1.0000   1.0000   1.0000   1.0000   1.0000
     1.0000   1.0000   1.0000   1.0000   1.0000

          k = 0.0000 0.1650 0.0000 ( 14863 PWs)   bands (ev):

   -66.6784 -40.8756 -40.7117 -40.6478 -19.8711 -18.6928 -11.3981  -9.2066
    -8.7604  -8.2668  -7.8836  -7.0090  -6.2024

     occupation numbers 
     1.0000   1.0000   1.0000   1.0000   1.0000   1.0000   1.0000   1.0000
     1.0000   1.0000   1.0000   1.0000   1.0000

          k = 0.0000 0.2199 0.0000 ( 14819 PWs)   bands (ev):

   -66.6727 -40.8643 -40.7678 -40.6606 -19.6446 -18.6010 -11.2100  -9.5307
    -9.1507  -8.1417  -8.0387  -7.0794  -6.4046

     occupation numbers 
     1.0000   1.0000   1.0000   1.0000   1.0000   1.0000   1.0000   1.0000
     1.0000   1.0000   1.0000   1.0000   1.0000

          k = 0.0000 0.2749 0.0000 ( 14799 PWs)   bands (ev):

   -66.6662 -40.8516 -40.8304 -40.6749 -19.3752 -18.4924 -11.0942  -9.7797
    -9.5409  -8.3999  -7.7783  -7.2436  -6.6666

     occupation numbers 
     1.0000   1.0000   1.0000   1.0000   1.0000   1.0000   1.0000   1.0000
     1.0000   1.0000   1.0000   1.0000   1.0000

          k = 0.0000 0.3299 0.0000 ( 14811 PWs)   bands (ev):

   -66.6595 -40.8937 -40.8385 -40.6896 -19.0805 -18.3749 -11.1491  -9.9192
    -9.8841  -8.6375  -7.5110  -7.4356  -6.8959

     occupation numbers 
     1.0000   1.0000   1.0000   1.0000   1.0000   1.0000   1.0000   1.0000
     1.0000   1.0000   1.0000   1.0000   1.0000

          k = 0.0000 0.3849 0.0000 ( 14770 PWs)   bands (ev):

   -66.6533 -40.9523 -40.8263 -40.7032 -18.7832 -18.2584 -11.3489 -10.2669
    -9.9123  -8.8403  -7.6082  -7.2653  -6.9890

     occupation numbers 
     1.0000   1.0000   1.0000   1.0000   1.0000   1.0000   1.0000   1.0000
     1.0000   1.0000   1.0000   1.0000   1.0000

          k = 0.0000 0.4399 0.0000 ( 14726 PWs)   bands (ev):

   -66.6481 -41.0011 -40.8160 -40.7146 -18.5123 -18.1547 -11.5848 -10.5596
    -9.9706  -8.9991  -7.7399  -7.0670  -6.9166

     occupation numbers 
     1.0000   1.0000   1.0000   1.0000   1.0000   1.0000   1.0000   1.0000
     1.0000   1.0000   1.0000   1.0000   1.0000

          k = 0.0000 0.4949 0.0000 ( 14720 PWs)   bands (ev):

   -66.6443 -41.0361 -40.8086 -40.7228 -18.3019 -18.0763 -11.7812 -10.7722
   -10.0564  -9.1078  -7.8256  -6.9320  -6.7581

     occupation numbers 
     1.0000   1.0000   1.0000   1.0000   1.0000   1.0000   1.0000   1.0000
     1.0000   1.0000   1.0000   1.0000   1.0000

          k = 0.0000 0.5499 0.0000 ( 14732 PWs)   bands (ev):

   -66.6423 -41.0543 -40.8047 -40.7271 -18.1857 -18.0338 -11.8920 -10.8842
   -10.1168  -9.1630  -7.8672  -6.8650  -6.6366

     occupation numbers 
     1.0000   1.0000   1.0000   1.0000   1.0000   1.0000   1.0000   1.0000
     1.0000   1.0000   1.0000   1.0000   1.0000

          k = 0.0476 0.0825 0.0000 ( 14879 PWs)   bands (ev):

   -66.6839 -40.8862 -40.6578 -40.6358 -20.0769 -18.7765 -11.6108  -8.8251
    -8.4800  -8.2737  -7.6198  -7.1061  -6.0702

     occupation numbers 
     1.0000   1.0000   1.0000   1.0000   1.0000   1.0000   1.0000   1.0000
     1.0000   1.0000   1.0000   1.0000   1.0000

          k = 0.0476 0.1375 0.0000 ( 14866 PWs)   bands (ev):

   -66.6802 -40.8790 -40.6938 -40.6445 -19.9385 -18.7202 -11.4637  -9.0895
    -8.6060  -8.3390  -7.8505  -6.9738  -6.1515

     occupation numbers 
     1.0000   1.0000   1.0000   1.0000   1.0000   1.0000   1.0000   1.0000
     1.0000   1.0000   1.0000   1.0000   1.0000

          k = 0.0476 0.1925 0.0000 ( 14822 PWs)   bands (ev):

   -66.6751 -40.8689 -40.7434 -40.6566 -19.7397 -18.6394 -11.2782  -9.4034
    -8.9654  -8.1431  -8.1294  -6.9596  -6.3109

     occupation numbers 
     1.0000   1.0000   1.0000   1.0000   1.0000   1.0000   1.0000   1.0000
     1.0000   1.0000   1.0000   1.0000   1.0000

          k = 0.0476 0.2474 0.0000 ( 14793 PWs)   bands (ev):

   -66.6689 -40.8569 -40.8019 -40.6709 -19.4915 -18.5389 -11.1172  -9.6868
    -9.3419  -8.4076  -7.9136  -7.0676  -6.5459

     occupation numbers 
     1.0000   1.0000   1.0000   1.0000   1.0000   1.0000   1.0000   1.0000
     1.0000   1.0000   1.0000   1.0000   1.0000

          k = 0.0476 0.3024 0.0000 ( 14818 PWs)   bands (ev):

   -66.6624 -40.8640 -40.8441 -40.6863 -19.2088 -18.4252 -11.0840  -9.8487
    -9.7267  -8.6523  -7.6834  -7.2492  -6.7854

     occupation numbers 
     1.0000   1.0000   1.0000   1.0000   1.0000   1.0000   1.0000   1.0000
     1.0000   1.0000   1.0000   1.0000   1.0000

          k = 0.0476 0.3574 0.0000 ( 14790 PWs)   bands (ev):

   -66.6559 -40.9242 -40.8314 -40.7012 -18.9117 -18.3073 -11.2240 -10.1000
    -9.8856  -8.8493  -7.4980  -7.4472  -6.9058

     occupation numbers 
     1.0000   1.0000   1.0000   1.0000   1.0000   1.0000   1.0000   1.0000
     1.0000   1.0000   1.0000   1.0000   1.0000

          k = 0.0476 0.4124 0.0000 ( 14761 PWs)   bands (ev):

   -66.6502 -40.9771 -40.8202 -40.7145 -18.6258 -18.1961 -11.4483 -10.4334
    -9.9176  -8.9974  -7.6226  -7.3644  -6.8476

     occupation numbers 
     1.0000   1.0000   1.0000   1.0000   1.0000   1.0000   1.0000   1.0000
     1.0000   1.0000   1.0000   1.0000   1.0000

          k = 0.0476 0.4674 0.0000 ( 14735 PWs)   bands (ev):

   -66.6457 -41.0185 -40.8114 -40.7249 -18.3829 -18.1037 -11.6644 -10.6976
    -9.9965  -9.0997  -7.7551  -7.2359  -6.6998

     occupation numbers 
     1.0000   1.0000   1.0000   1.0000   1.0000   1.0000   1.0000   1.0000
     1.0000   1.0000   1.0000   1.0000   1.0000

          k = 0.0476 0.5224 0.0000 ( 14722 PWs)   bands (ev):

   -66.6428 -41.0447 -40.8057 -40.7315 -18.2175 -18.0422 -11.8170 -10.8675
   -10.0784  -9.1597  -7.8362  -7.1351  -6.5579

     occupation numbers 
     1.0000   1.0000   1.0000   1.0000   1.0000   1.0000   1.0000   1.0000
     1.0000   1.0000   1.0000   1.0000   1.0000

          k = 0.0476 0.5774 0.0000 ( 14726 PWs)   bands (ev):

   -66.6418 -41.0537 -40.8038 -40.7337 -18.1584 -18.0206 -11.8721 -10.9261
   -10.1119  -9.1795  -7.8634  -7.0986  -6.4983

     occupation numbers 
     1.0000   1.0000   1.0000   1.0000   1.0000   1.0000   1.0000   1.0000
     1.0000   1.0000   1.0000   1.0000   1.0000

          k = 0.0952 0.1650 0.0000 ( 14831 PWs)   bands (ev):

   -66.6759 -40.8706 -40.7342 -40.6560 -19.7719 -18.6524 -11.3027  -9.3542
    -8.8737  -8.1834  -8.1804  -6.8807  -6.2787

     occupation numbers 
     1.0000   1.0000   1.0000   1.0000   1.0000   1.0000   1.0000   1.0000
     1.0000   1.0000   1.0000   1.0000   1.0000

          k = 0.0952 0.2199 0.0000 ( 14819 PWs)   bands (ev):

   -66.6704 -40.8598 -40.7848 -40.6711 -19.5512 -18.5626 -11.1333  -9.6223
    -9.1712  -8.5372  -8.0020  -6.8852  -6.4755

     occupation numbers 
     1.0000   1.0000   1.0000   1.0000   1.0000   1.0000   1.0000   1.0000
     1.0000   1.0000   1.0000   1.0000   1.0000

          k = 0.0952 0.2749 0.0000 ( 14797 PWs)   bands (ev):

   -66.6642 -40.8476 -40.8411 -40.6882 -19.2888 -18.4562 -11.0406  -9.8053
    -9.5235  -8.8255  -7.8395  -7.0012  -6.6933

     occupation numbers 
     1.0000   1.0000   1.0000   1.0000   1.0000   1.0000   1.0000   1.0000
     1.0000   1.0000   1.0000   1.0000   1.0000

          k = 0.0952 0.3299 0.0000 ( 14799 PWs)   bands (ev):

   -66.6578 -40.8981 -40.8351 -40.7057 -19.0022 -18.3409 -11.1066  -9.9188
    -9.8493  -9.0116  -7.7532  -7.1911  -6.8203

     occupation numbers 
     1.0000   1.0000   1.0000   1.0000   1.0000   1.0000   1.0000   1.0000
     1.0000   1.0000   1.0000   1.0000   1.0000

          k = 0.0952 0.3849 0.0000 ( 14775 PWs)   bands (ev):

   -66.6519 -40.9509 -40.8235 -40.7220 -18.7138 -18.2262 -11.2900 -10.3036
    -9.8457  -9.1180  -7.7286  -7.4052  -6.7915

     occupation numbers 
     1.0000   1.0000   1.0000   1.0000   1.0000   1.0000   1.0000   1.0000
     1.0000   1.0000   1.0000   1.0000   1.0000

          k = 0.0952 0.4399 0.0000 ( 14747 PWs)   bands (ev):

   -66.6469 -40.9949 -40.8137 -40.7357 -18.4519 -18.1238 -11.4959 -10.6306
    -9.9001  -9.1705  -7.6755  -7.6033  -6.6655

     occupation numbers 
     1.0000   1.0000   1.0000   1.0000   1.0000   1.0000   1.0000   1.0000
     1.0000   1.0000   1.0000   1.0000   1.0000

          k = 0.0952 0.4949 0.0000 ( 14735 PWs)   bands (ev):

   -66.6433 -41.0264 -40.8066 -40.7455 -18.2494 -18.0461 -11.6640 -10.8671
    -9.9959  -9.1896  -7.7553  -7.5960  -6.5124

     occupation numbers 
     1.0000   1.0000   1.0000   1.0000   1.0000   1.0000   1.0000   1.0000
     1.0000   1.0000   1.0000   1.0000   1.0000

          k = 0.0952 0.5499 0.0000 ( 14720 PWs)   bands (ev):

   -66.6414 -41.0428 -40.8029 -40.7507 -18.1379 -18.0039 -11.7580 -10.9911
   -10.0651  -9.1931  -7.8383  -7.5439  -6.4027

     occupation numbers 
     1.0000   1.0000   1.0000   1.0000   1.0000   1.0000   1.0000   1.0000
     1.0000   1.0000   1.0000   1.0000   1.0000

          k = 0.1429 0.2474 0.0000 ( 14805 PWs)   bands (ev):

   -66.6648 -40.8488 -40.8322 -40.6899 -19.3160 -18.4667 -11.0254  -9.7858
    -9.4018  -8.9491  -7.8997  -6.8902  -6.6595

     occupation numbers 
     1.0000   1.0000   1.0000   1.0000   1.0000   1.0000   1.0000   1.0000
     1.0000   1.0000   1.0000   1.0000   1.0000

          k = 0.1429 0.3024 0.0000 ( 14800 PWs)   bands (ev):

   -66.6588 -40.8816 -40.8371 -40.7109 -19.0489 -18.3578 -11.0341  -9.8226
    -9.7563  -9.1909  -7.9080  -7.0032  -6.7765

     occupation numbers 
     1.0000   1.0000   1.0000   1.0000   1.0000   1.0000   1.0000   1.0000
     1.0000   1.0000   1.0000   1.0000   1.0000

          k = 0.1429 0.3574 0.0000 ( 14795 PWs)   bands (ev):

   -66.6529 -40.9291 -40.8256 -40.7319 -18.7693 -18.2443 -11.1590 -10.1809
    -9.7753  -9.2743  -8.0172  -7.1968  -6.7710

     occupation numbers 
     1.0000   1.0000   1.0000   1.0000   1.0000   1.0000   1.0000   1.0000
     1.0000   1.0000   1.0000   1.0000   1.0000

          k = 0.1429 0.4124 0.0000 ( 14779 PWs)   bands (ev):

   -66.6477 -40.9708 -40.8153 -40.7508 -18.5021 -18.1366 -11.3240 -10.5686
    -9.7759  -9.2812  -8.1021  -7.4238  -6.6739

     occupation numbers 
     1.0000   1.0000   1.0000   1.0000   1.0000   1.0000   1.0000   1.0000
     1.0000   1.0000   1.0000   1.0000   1.0000

          k = 0.1429 0.4674 0.0000 ( 14755 PWs)   bands (ev):

   -66.6436 -41.0032 -40.8073 -40.7657 -18.2768 -18.0467 -11.4715 -10.8721
    -9.8678  -9.2474  -8.1042  -7.6383  -6.5245

     occupation numbers 
     1.0000   1.0000   1.0000   1.0000   1.0000   1.0000   1.0000   1.0000
     1.0000   1.0000   1.0000   1.0000   1.0000

          k = 0.1429 0.5224 0.0000 ( 14748 PWs)   bands (ev):

   -66.6410 -41.0237 -40.8021 -40.7753 -18.1246 -17.9866 -11.5709 -11.0649
    -9.9763  -9.2035  -8.0740  -7.7959  -6.3755

     occupation numbers 
     1.0000   1.0000   1.0000   1.0000   1.0000   1.0000   1.0000   1.0000
     1.0000   1.0000   1.0000   1.0000   1.0000

          k = 0.1429 0.5774 0.0000 ( 14726 PWs)   bands (ev):

   -66.6401 -41.0308 -40.8003 -40.7785 -18.0706 -17.9654 -11.6059 -11.1310
   -10.0219  -9.1831  -8.0597  -7.8551  -6.3102

     occupation numbers 
     1.0000   1.0000   1.0000   1.0000   1.0000   1.0000   1.0000   1.0000
     1.0000   1.0000   1.0000   1.0000   1.0000

          k = 0.1905 0.3299 0.0000 ( 14785 PWs)   bands (ev):

   -66.6533 -40.9203 -40.8263 -40.7367 -18.7883 -18.2504 -11.1073 -10.1224
    -9.7435  -9.3502  -8.1303  -7.1109  -6.7669

     occupation numbers 
     1.0000   1.0000   1.0000   1.0000   1.0000   1.0000   1.0000   1.0000
     1.0000   1.0000   1.0000   1.0000   1.0000

          k = 0.1905 0.3849 0.0000 ( 14761 PWs)   bands (ev):

   -66.6481 -40.9544 -40.8162 -40.7625 -18.5284 -18.1428 -11.2124 -10.5267
    -9.6657  -9.3623  -8.3920  -7.3027  -6.6893

     occupation numbers 
     1.0000   1.0000   1.0000   1.0000   1.0000   1.0000   1.0000   1.0000
     1.0000   1.0000   1.0000   1.0000   1.0000

          k = 0.1905 0.4399 0.0000 ( 14749 PWs)   bands (ev):

   -66.6438 -40.9818 -40.8077 -40.7853 -18.2953 -18.0461 -11.3037 -10.8759
    -9.7003  -9.3027  -8.5593  -7.5323  -6.5530

     occupation numbers 
     1.0000   1.0000   1.0000   1.0000   1.0000   1.0000   1.0000   1.0000
     1.0000   1.0000   1.0000   1.0000   1.0000

          k = 0.1905 0.4949 0.0000 ( 14738 PWs)   bands (ev):

   -66.6407 -41.0008 -40.8023 -40.8016 -18.1173 -17.9722 -11.3608 -11.1281
    -9.8378  -9.2138  -8.6073  -7.7460  -6.3810

     occupation numbers 
     1.0000   1.0000   1.0000   1.0000   1.0000   1.0000   1.0000   1.0000
     1.0000   1.0000   1.0000   1.0000   1.0000

          k = 0.1905 0.5499 0.0000 ( 14758 PWs)   bands (ev):

   -66.6391 -41.0106 -40.8114 -40.7984 -18.0203 -17.9319 -11.3844 -11.2600
    -9.9515  -9.1441  -8.6094  -7.8816  -6.2499

     occupation numbers 
     1.0000   1.0000   1.0000   1.0000   1.0000   1.0000   1.0000   1.0000
     1.0000   1.0000   1.0000   1.0000   1.0000

          k = 0.2381 0.4124 0.0000 ( 14762 PWs)   bands (ev):

   -66.6439 -40.9725 -40.8079 -40.7940 -18.3018 -18.0456 -11.2358 -10.8772
    -9.5903  -9.3252  -8.7781  -7.4894  -6.5664

     occupation numbers 
     1.0000   1.0000   1.0000   1.0000   1.0000   1.0000   1.0000   1.0000
     1.0000   1.0000   1.0000   1.0000   1.0000

          k = 0.2381 0.4674 0.0000 ( 14743 PWs)   bands (ev):

   -66.6406 -40.9833 -40.8221 -40.8013 -18.1142 -17.9639 -11.2135 -11.1643
    -9.6530  -9.2212  -9.0351  -7.7108  -6.3912

     occupation numbers 
     1.0000   1.0000   1.0000   1.0000   1.0000   1.0000   1.0000   1.0000
     1.0000   1.0000   1.0000   1.0000   1.0000

          k = 0.2381 0.5224 0.0000 ( 14764 PWs)   bands (ev):

   -66.6384 -40.9881 -40.8421 -40.7971 -17.9895 -17.9089 -11.3501 -11.1590
    -9.8431  -9.1074  -9.1045  -7.9043  -6.2104

     occupation numbers 
     1.0000   1.0000   1.0000   1.0000   1.0000   1.0000   1.0000   1.0000
     1.0000   1.0000   1.0000   1.0000   1.0000

          k = 0.2381 0.5774 0.0000 ( 14780 PWs)   bands (ev):

   -66.6377 -40.9892 -40.8495 -40.7957 -17.9458 -17.8895 -11.4143 -11.1264
    -9.9422  -9.1158  -9.0491  -7.9865  -6.1283

     occupation numbers 
     1.0000   1.0000   1.0000   1.0000   1.0000   1.0000   1.0000   1.0000
     1.0000   1.0000   1.0000   1.0000   1.0000

          k = 0.2857 0.4949 0.0000 ( 14734 PWs)   bands (ev):

   -66.6382 -40.9766 -40.8565 -40.7967 -17.9792 -17.9007 -11.3823 -11.0550
    -9.7318  -9.3787  -9.0883  -7.9130  -6.1958

     occupation numbers 
     1.0000   1.0000   1.0000   1.0000   1.0000   1.0000   1.0000   1.0000
     1.0000   1.0000   1.0000   1.0000   1.0000

          k = 0.2857 0.5499 0.0000 ( 14738 PWs)   bands (ev):

   -66.6370 -40.9673 -40.8803 -40.7943 -17.9071 -17.8662 -11.4989 -10.8844
    -9.9754  -9.4505  -8.9740  -8.0642  -6.0439

     occupation numbers 
     1.0000   1.0000   1.0000   1.0000   1.0000   1.0000   1.0000   1.0000
     1.0000   1.0000   1.0000   1.0000   1.0000

          k = 0.3333 0.5774 0.0000 ( 14760 PWs)   bands (ev):

   -66.6365 -40.9516 -40.9019 -40.7933 -17.8786 -17.8511 -11.5510 -10.6848
   -10.1610  -9.5346  -8.9084  -8.1397  -5.9683

     occupation numbers 
     1.0000   1.0000   1.0000   1.0000   1.0000   1.0000   1.0000   1.0000
     1.0000   1.0000   1.0000   1.0000   1.0000

     highest occupied level (ev):    -5.9683

!    total energy              =    -184.83183022 Ry
     estimated scf accuracy    <          8.1E-16 Ry

     convergence has been achieved in  10 iterations

     Forces acting on atoms (cartesian axes, Ry/au):

     atom    1 type  1   force =     0.00000000    0.00000000    0.00000000
     atom    2 type  2   force =    -0.00000000   -0.00000000   -0.00000036
     atom    3 type  2   force =     0.00000000   -0.00000000    0.00000036
     The non-local contrib.  to forces
     atom    1 type  1   force =    -0.00000000   -0.00000000    0.00000000
     atom    2 type  2   force =     0.00000000    0.00000000   -0.25592283
     atom    3 type  2   force =    -0.00000000    0.00000000    0.25592283
     The ionic contribution  to forces
     atom    1 type  1   force =     0.00000001    0.00000097    0.00000000
     atom    2 type  2   force =    -0.00000000   -0.00000048   46.86190434
     atom    3 type  2   force =    -0.00000000   -0.00000048  -46.86190434
     The local contribution  to forces
     atom    1 type  1   force =     0.00000000    0.00002380    0.00000000
     atom    2 type  2   force =    -0.00000001    0.00000001  -46.61016926
     atom    3 type  2   force =    -0.00000001    0.00000001   46.61016926
     The core correction contribution to forces
     atom    1 type  1   force =     0.00000000   -0.00000040   -0.00000000
     atom    2 type  2   force =     0.00000000   -0.00000000    0.00418733
     atom    3 type  2   force =     0.00000000   -0.00000000   -0.00418733
     The Hubbard contrib.    to forces
     atom    1 type  1   force =     0.00000000    0.00000000    0.00000000
     atom    2 type  2   force =     0.00000000    0.00000000    0.00000000
     atom    3 type  2   force =     0.00000000    0.00000000    0.00000000
     The SCF correction term to forces
     atom    1 type  1   force =     0.00000000   -0.00000000    0.00000000
     atom    2 type  2   force =    -0.00000000   -0.00000000    0.00000006
     atom    3 type  2   force =    -0.00000000   -0.00000000   -0.00000006

     Total force =     0.000001     Total SCF correction =     0.000000
     SCF correction compared to forces is large: reduce conv_thr to get better values

     Entering Dynamics:    iteration =    11

     <vel(dt)|acc(dt)> =   1.00000000

ATOMIC_POSITIONS (crystal)
Mo               0.3333333000        0.6666666000        0.5000000000    0   0   0
S                0.6666666670        0.3333333330        0.5735812397    0   0   1
S                0.6666666670        0.3333333330        0.4264187603    0   0   1



     Writing config-only to output data dir ./tmp/MoS2.save/ :
     XML data file
     NEW-OLD atomic charge density approx. for the potential

     total cpu time spent up to now is      426.3 secs

     per-process dynamical memory:    64.5 Mb

     Self-consistent Calculation

     iteration #  1     ecut=    80.00 Ry     beta= 0.20
     Davidson diagonalization with overlap

---- Real-time Memory Report at c_bands before calling an iterative solver
            88 MiB given to the printing process from OS
            63 MiB allocation reported by mallinfo(arena+hblkhd)
        244301 MiB available memory on the node where the printing process lives
------------------
     ethr =  1.00E-06,  avg # of iterations =  1.0

     Threshold (ethr) on eigenvalues was too large:
     Diagonalizing with lowered threshold

     Davidson diagonalization with overlap

---- Real-time Memory Report at c_bands before calling an iterative solver
            88 MiB given to the printing process from OS
            63 MiB allocation reported by mallinfo(arena+hblkhd)
        244301 MiB available memory on the node where the printing process lives
------------------
     ethr =  1.00E-13,  avg # of iterations =  1.9

     total cpu time spent up to now is      428.1 secs

     total energy              =    -184.83183022 Ry
     estimated scf accuracy    <          4.4E-13 Ry

     iteration #  2     ecut=    80.00 Ry     beta= 0.20
     Davidson diagonalization with overlap

---- Real-time Memory Report at c_bands before calling an iterative solver
            88 MiB given to the printing process from OS
            63 MiB allocation reported by mallinfo(arena+hblkhd)
        244301 MiB available memory on the node where the printing process lives
------------------
     ethr =  1.00E-13,  avg # of iterations =  1.0

     total cpu time spent up to now is      429.1 secs

     total energy              =    -184.83183022 Ry
     estimated scf accuracy    <          3.3E-14 Ry

     iteration #  3     ecut=    80.00 Ry     beta= 0.20
     Davidson diagonalization with overlap

---- Real-time Memory Report at c_bands before calling an iterative solver
            88 MiB given to the printing process from OS
            63 MiB allocation reported by mallinfo(arena+hblkhd)
        244301 MiB available memory on the node where the printing process lives
------------------
     ethr =  1.00E-13,  avg # of iterations =  1.0

     total cpu time spent up to now is      430.0 secs

     total energy              =    -184.83183022 Ry
     estimated scf accuracy    <          4.0E-14 Ry

     iteration #  4     ecut=    80.00 Ry     beta= 0.20
     Davidson diagonalization with overlap

---- Real-time Memory Report at c_bands before calling an iterative solver
            88 MiB given to the printing process from OS
            63 MiB allocation reported by mallinfo(arena+hblkhd)
        244301 MiB available memory on the node where the printing process lives
------------------
     ethr =  1.00E-13,  avg # of iterations =  1.0

     total cpu time spent up to now is      430.9 secs

     total energy              =    -184.83183022 Ry
     estimated scf accuracy    <          8.0E-15 Ry

     iteration #  5     ecut=    80.00 Ry     beta= 0.20
     Davidson diagonalization with overlap

---- Real-time Memory Report at c_bands before calling an iterative solver
            88 MiB given to the printing process from OS
            63 MiB allocation reported by mallinfo(arena+hblkhd)
        244301 MiB available memory on the node where the printing process lives
------------------
     ethr =  1.00E-13,  avg # of iterations =  1.0

     total cpu time spent up to now is      431.8 secs

     total energy              =    -184.83183022 Ry
     estimated scf accuracy    <          5.0E-15 Ry

     iteration #  6     ecut=    80.00 Ry     beta= 0.20
     Davidson diagonalization with overlap

---- Real-time Memory Report at c_bands before calling an iterative solver
            88 MiB given to the printing process from OS
            63 MiB allocation reported by mallinfo(arena+hblkhd)
        244301 MiB available memory on the node where the printing process lives
------------------
     ethr =  1.00E-13,  avg # of iterations =  1.0

     total cpu time spent up to now is      432.7 secs

     End of self-consistent calculation

          k = 0.0000 0.0000 0.0000 ( 14903 PWs)   bands (ev):

   -66.6868 -40.8920 -40.6290 -40.6290 -20.1838 -18.8200 -11.7313  -8.5914
    -8.5914  -7.8013  -7.4349  -7.4348  -6.0269

     occupation numbers 
     1.0000   1.0000   1.0000   1.0000   1.0000   1.0000   1.0000   1.0000
     1.0000   1.0000   1.0000   1.0000   1.0000

          k = 0.0000 0.0550 0.0000 ( 14887 PWs)   bands (ev):

   -66.6858 -40.8900 -40.6389 -40.6313 -20.1479 -18.8054 -11.6902  -8.6732
    -8.5537  -8.0203  -7.4938  -7.2669  -6.0395

     occupation numbers 
     1.0000   1.0000   1.0000   1.0000   1.0000   1.0000   1.0000   1.0000
     1.0000   1.0000   1.0000   1.0000   1.0000

          k = 0.0000 0.1100 0.0000 ( 14865 PWs)   bands (ev):

   -66.6829 -40.8844 -40.6673 -40.6377 -20.0418 -18.7623 -11.5727  -8.8965
    -8.4429  -8.3780  -7.6552  -7.0773  -6.0884

     occupation numbers 
     1.0000   1.0000   1.0000   1.0000   1.0000   1.0000   1.0000   1.0000
     1.0000   1.0000   1.0000   1.0000   1.0000

          k = 0.0000 0.1650 0.0000 ( 14863 PWs)   bands (ev):

   -66.6784 -40.8756 -40.7117 -40.6478 -19.8711 -18.6928 -11.3982  -9.2066
    -8.7604  -8.2668  -7.8836  -7.0090  -6.2024

     occupation numbers 
     1.0000   1.0000   1.0000   1.0000   1.0000   1.0000   1.0000   1.0000
     1.0000   1.0000   1.0000   1.0000   1.0000

          k = 0.0000 0.2199 0.0000 ( 14819 PWs)   bands (ev):

   -66.6727 -40.8643 -40.7678 -40.6606 -19.6446 -18.6010 -11.2100  -9.5307
    -9.1507  -8.1417  -8.0387  -7.0794  -6.4046

     occupation numbers 
     1.0000   1.0000   1.0000   1.0000   1.0000   1.0000   1.0000   1.0000
     1.0000   1.0000   1.0000   1.0000   1.0000

          k = 0.0000 0.2749 0.0000 ( 14799 PWs)   bands (ev):

   -66.6662 -40.8516 -40.8304 -40.6749 -19.3752 -18.4924 -11.0942  -9.7797
    -9.5409  -8.3999  -7.7783  -7.2436  -6.6666

     occupation numbers 
     1.0000   1.0000   1.0000   1.0000   1.0000   1.0000   1.0000   1.0000
     1.0000   1.0000   1.0000   1.0000   1.0000

          k = 0.0000 0.3299 0.0000 ( 14811 PWs)   bands (ev):

   -66.6595 -40.8937 -40.8385 -40.6896 -19.0805 -18.3749 -11.1491  -9.9192
    -9.8841  -8.6375  -7.5110  -7.4356  -6.8959

     occupation numbers 
     1.0000   1.0000   1.0000   1.0000   1.0000   1.0000   1.0000   1.0000
     1.0000   1.0000   1.0000   1.0000   1.0000

          k = 0.0000 0.3849 0.0000 ( 14770 PWs)   bands (ev):

   -66.6533 -40.9523 -40.8263 -40.7032 -18.7832 -18.2584 -11.3489 -10.2669
    -9.9123  -8.8403  -7.6082  -7.2653  -6.9891

     occupation numbers 
     1.0000   1.0000   1.0000   1.0000   1.0000   1.0000   1.0000   1.0000
     1.0000   1.0000   1.0000   1.0000   1.0000

          k = 0.0000 0.4399 0.0000 ( 14726 PWs)   bands (ev):

   -66.6481 -41.0011 -40.8160 -40.7146 -18.5123 -18.1547 -11.5848 -10.5596
    -9.9706  -8.9991  -7.7399  -7.0670  -6.9166

     occupation numbers 
     1.0000   1.0000   1.0000   1.0000   1.0000   1.0000   1.0000   1.0000
     1.0000   1.0000   1.0000   1.0000   1.0000

          k = 0.0000 0.4949 0.0000 ( 14720 PWs)   bands (ev):

   -66.6443 -41.0361 -40.8086 -40.7228 -18.3019 -18.0763 -11.7812 -10.7722
   -10.0564  -9.1078  -7.8256  -6.9320  -6.7581

     occupation numbers 
     1.0000   1.0000   1.0000   1.0000   1.0000   1.0000   1.0000   1.0000
     1.0000   1.0000   1.0000   1.0000   1.0000

          k = 0.0000 0.5499 0.0000 ( 14732 PWs)   bands (ev):

   -66.6423 -41.0543 -40.8047 -40.7271 -18.1857 -18.0338 -11.8920 -10.8842
   -10.1168  -9.1630  -7.8672  -6.8650  -6.6366

     occupation numbers 
     1.0000   1.0000   1.0000   1.0000   1.0000   1.0000   1.0000   1.0000
     1.0000   1.0000   1.0000   1.0000   1.0000

          k = 0.0476 0.0825 0.0000 ( 14879 PWs)   bands (ev):

   -66.6839 -40.8862 -40.6578 -40.6358 -20.0769 -18.7765 -11.6108  -8.8251
    -8.4800  -8.2737  -7.6198  -7.1061  -6.0702

     occupation numbers 
     1.0000   1.0000   1.0000   1.0000   1.0000   1.0000   1.0000   1.0000
     1.0000   1.0000   1.0000   1.0000   1.0000

          k = 0.0476 0.1375 0.0000 ( 14866 PWs)   bands (ev):

   -66.6802 -40.8790 -40.6938 -40.6445 -19.9385 -18.7202 -11.4637  -9.0895
    -8.6060  -8.3390  -7.8505  -6.9738  -6.1515

     occupation numbers 
     1.0000   1.0000   1.0000   1.0000   1.0000   1.0000   1.0000   1.0000
     1.0000   1.0000   1.0000   1.0000   1.0000

          k = 0.0476 0.1925 0.0000 ( 14822 PWs)   bands (ev):

   -66.6751 -40.8689 -40.7434 -40.6566 -19.7397 -18.6394 -11.2782  -9.4034
    -8.9654  -8.1431  -8.1294  -6.9596  -6.3109

     occupation numbers 
     1.0000   1.0000   1.0000   1.0000   1.0000   1.0000   1.0000   1.0000
     1.0000   1.0000   1.0000   1.0000   1.0000

          k = 0.0476 0.2474 0.0000 ( 14793 PWs)   bands (ev):

   -66.6689 -40.8569 -40.8019 -40.6709 -19.4915 -18.5389 -11.1172  -9.6868
    -9.3419  -8.4076  -7.9136  -7.0676  -6.5459

     occupation numbers 
     1.0000   1.0000   1.0000   1.0000   1.0000   1.0000   1.0000   1.0000
     1.0000   1.0000   1.0000   1.0000   1.0000

          k = 0.0476 0.3024 0.0000 ( 14818 PWs)   bands (ev):

   -66.6624 -40.8640 -40.8441 -40.6863 -19.2088 -18.4252 -11.0840  -9.8487
    -9.7267  -8.6523  -7.6834  -7.2492  -6.7854

     occupation numbers 
     1.0000   1.0000   1.0000   1.0000   1.0000   1.0000   1.0000   1.0000
     1.0000   1.0000   1.0000   1.0000   1.0000

          k = 0.0476 0.3574 0.0000 ( 14790 PWs)   bands (ev):

   -66.6559 -40.9242 -40.8314 -40.7012 -18.9117 -18.3074 -11.2240 -10.1000
    -9.8856  -8.8493  -7.4980  -7.4472  -6.9058

     occupation numbers 
     1.0000   1.0000   1.0000   1.0000   1.0000   1.0000   1.0000   1.0000
     1.0000   1.0000   1.0000   1.0000   1.0000

          k = 0.0476 0.4124 0.0000 ( 14761 PWs)   bands (ev):

   -66.6502 -40.9771 -40.8202 -40.7145 -18.6258 -18.1961 -11.4483 -10.4334
    -9.9176  -8.9974  -7.6226  -7.3644  -6.8476

     occupation numbers 
     1.0000   1.0000   1.0000   1.0000   1.0000   1.0000   1.0000   1.0000
     1.0000   1.0000   1.0000   1.0000   1.0000

          k = 0.0476 0.4674 0.0000 ( 14735 PWs)   bands (ev):

   -66.6457 -41.0185 -40.8114 -40.7249 -18.3829 -18.1037 -11.6644 -10.6976
    -9.9965  -9.0997  -7.7551  -7.2359  -6.6998

     occupation numbers 
     1.0000   1.0000   1.0000   1.0000   1.0000   1.0000   1.0000   1.0000
     1.0000   1.0000   1.0000   1.0000   1.0000

          k = 0.0476 0.5224 0.0000 ( 14722 PWs)   bands (ev):

   -66.6428 -41.0447 -40.8057 -40.7315 -18.2175 -18.0422 -11.8170 -10.8675
   -10.0784  -9.1597  -7.8362  -7.1351  -6.5579

     occupation numbers 
     1.0000   1.0000   1.0000   1.0000   1.0000   1.0000   1.0000   1.0000
     1.0000   1.0000   1.0000   1.0000   1.0000

          k = 0.0476 0.5774 0.0000 ( 14726 PWs)   bands (ev):

   -66.6418 -41.0537 -40.8038 -40.7337 -18.1584 -18.0206 -11.8721 -10.9261
   -10.1119  -9.1795  -7.8634  -7.0987  -6.4983

     occupation numbers 
     1.0000   1.0000   1.0000   1.0000   1.0000   1.0000   1.0000   1.0000
     1.0000   1.0000   1.0000   1.0000   1.0000

          k = 0.0952 0.1650 0.0000 ( 14831 PWs)   bands (ev):

   -66.6759 -40.8706 -40.7342 -40.6560 -19.7719 -18.6524 -11.3027  -9.3542
    -8.8737  -8.1835  -8.1804  -6.8807  -6.2787

     occupation numbers 
     1.0000   1.0000   1.0000   1.0000   1.0000   1.0000   1.0000   1.0000
     1.0000   1.0000   1.0000   1.0000   1.0000

          k = 0.0952 0.2199 0.0000 ( 14819 PWs)   bands (ev):

   -66.6704 -40.8598 -40.7848 -40.6711 -19.5512 -18.5626 -11.1333  -9.6223
    -9.1712  -8.5372  -8.0020  -6.8852  -6.4755

     occupation numbers 
     1.0000   1.0000   1.0000   1.0000   1.0000   1.0000   1.0000   1.0000
     1.0000   1.0000   1.0000   1.0000   1.0000

          k = 0.0952 0.2749 0.0000 ( 14797 PWs)   bands (ev):

   -66.6642 -40.8476 -40.8411 -40.6882 -19.2888 -18.4562 -11.0406  -9.8053
    -9.5235  -8.8255  -7.8395  -7.0012  -6.6933

     occupation numbers 
     1.0000   1.0000   1.0000   1.0000   1.0000   1.0000   1.0000   1.0000
     1.0000   1.0000   1.0000   1.0000   1.0000

          k = 0.0952 0.3299 0.0000 ( 14799 PWs)   bands (ev):

   -66.6578 -40.8981 -40.8351 -40.7057 -19.0022 -18.3409 -11.1066  -9.9188
    -9.8493  -9.0116  -7.7532  -7.1911  -6.8203

     occupation numbers 
     1.0000   1.0000   1.0000   1.0000   1.0000   1.0000   1.0000   1.0000
     1.0000   1.0000   1.0000   1.0000   1.0000

          k = 0.0952 0.3849 0.0000 ( 14775 PWs)   bands (ev):

   -66.6519 -40.9509 -40.8235 -40.7220 -18.7138 -18.2262 -11.2900 -10.3036
    -9.8457  -9.1180  -7.7286  -7.4052  -6.7915

     occupation numbers 
     1.0000   1.0000   1.0000   1.0000   1.0000   1.0000   1.0000   1.0000
     1.0000   1.0000   1.0000   1.0000   1.0000

          k = 0.0952 0.4399 0.0000 ( 14747 PWs)   bands (ev):

   -66.6469 -40.9949 -40.8137 -40.7357 -18.4520 -18.1238 -11.4959 -10.6306
    -9.9001  -9.1705  -7.6755  -7.6033  -6.6655

     occupation numbers 
     1.0000   1.0000   1.0000   1.0000   1.0000   1.0000   1.0000   1.0000
     1.0000   1.0000   1.0000   1.0000   1.0000

          k = 0.0952 0.4949 0.0000 ( 14735 PWs)   bands (ev):

   -66.6433 -41.0264 -40.8066 -40.7455 -18.2494 -18.0461 -11.6640 -10.8671
    -9.9959  -9.1896  -7.7553  -7.5960  -6.5124

     occupation numbers 
     1.0000   1.0000   1.0000   1.0000   1.0000   1.0000   1.0000   1.0000
     1.0000   1.0000   1.0000   1.0000   1.0000

          k = 0.0952 0.5499 0.0000 ( 14720 PWs)   bands (ev):

   -66.6414 -41.0428 -40.8029 -40.7507 -18.1379 -18.0039 -11.7580 -10.9911
   -10.0651  -9.1931  -7.8383  -7.5439  -6.4027

     occupation numbers 
     1.0000   1.0000   1.0000   1.0000   1.0000   1.0000   1.0000   1.0000
     1.0000   1.0000   1.0000   1.0000   1.0000

          k = 0.1429 0.2474 0.0000 ( 14805 PWs)   bands (ev):

   -66.6648 -40.8488 -40.8322 -40.6899 -19.3160 -18.4667 -11.0254  -9.7858
    -9.4018  -8.9491  -7.8997  -6.8902  -6.6595

     occupation numbers 
     1.0000   1.0000   1.0000   1.0000   1.0000   1.0000   1.0000   1.0000
     1.0000   1.0000   1.0000   1.0000   1.0000

          k = 0.1429 0.3024 0.0000 ( 14800 PWs)   bands (ev):

   -66.6588 -40.8816 -40.8371 -40.7109 -19.0489 -18.3578 -11.0341  -9.8226
    -9.7563  -9.1909  -7.9080  -7.0032  -6.7765

     occupation numbers 
     1.0000   1.0000   1.0000   1.0000   1.0000   1.0000   1.0000   1.0000
     1.0000   1.0000   1.0000   1.0000   1.0000

          k = 0.1429 0.3574 0.0000 ( 14795 PWs)   bands (ev):

   -66.6529 -40.9291 -40.8256 -40.7319 -18.7693 -18.2443 -11.1590 -10.1809
    -9.7753  -9.2743  -8.0172  -7.1968  -6.7710

     occupation numbers 
     1.0000   1.0000   1.0000   1.0000   1.0000   1.0000   1.0000   1.0000
     1.0000   1.0000   1.0000   1.0000   1.0000

          k = 0.1429 0.4124 0.0000 ( 14779 PWs)   bands (ev):

   -66.6477 -40.9708 -40.8153 -40.7508 -18.5021 -18.1366 -11.3240 -10.5686
    -9.7759  -9.2812  -8.1021  -7.4238  -6.6739

     occupation numbers 
     1.0000   1.0000   1.0000   1.0000   1.0000   1.0000   1.0000   1.0000
     1.0000   1.0000   1.0000   1.0000   1.0000

          k = 0.1429 0.4674 0.0000 ( 14755 PWs)   bands (ev):

   -66.6436 -41.0032 -40.8073 -40.7657 -18.2768 -18.0467 -11.4715 -10.8721
    -9.8678  -9.2474  -8.1042  -7.6383  -6.5245

     occupation numbers 
     1.0000   1.0000   1.0000   1.0000   1.0000   1.0000   1.0000   1.0000
     1.0000   1.0000   1.0000   1.0000   1.0000

          k = 0.1429 0.5224 0.0000 ( 14748 PWs)   bands (ev):

   -66.6410 -41.0237 -40.8021 -40.7753 -18.1246 -17.9866 -11.5709 -11.0649
    -9.9763  -9.2035  -8.0740  -7.7959  -6.3755

     occupation numbers 
     1.0000   1.0000   1.0000   1.0000   1.0000   1.0000   1.0000   1.0000
     1.0000   1.0000   1.0000   1.0000   1.0000

          k = 0.1429 0.5774 0.0000 ( 14726 PWs)   bands (ev):

   -66.6401 -41.0308 -40.8003 -40.7786 -18.0706 -17.9654 -11.6059 -11.1310
   -10.0219  -9.1831  -8.0597  -7.8551  -6.3103

     occupation numbers 
     1.0000   1.0000   1.0000   1.0000   1.0000   1.0000   1.0000   1.0000
     1.0000   1.0000   1.0000   1.0000   1.0000

          k = 0.1905 0.3299 0.0000 ( 14785 PWs)   bands (ev):

   -66.6533 -40.9203 -40.8263 -40.7367 -18.7883 -18.2504 -11.1073 -10.1224
    -9.7435  -9.3502  -8.1303  -7.1109  -6.7669

     occupation numbers 
     1.0000   1.0000   1.0000   1.0000   1.0000   1.0000   1.0000   1.0000
     1.0000   1.0000   1.0000   1.0000   1.0000

          k = 0.1905 0.3849 0.0000 ( 14761 PWs)   bands (ev):

   -66.6481 -40.9544 -40.8162 -40.7625 -18.5284 -18.1428 -11.2124 -10.5267
    -9.6657  -9.3623  -8.3920  -7.3027  -6.6893

     occupation numbers 
     1.0000   1.0000   1.0000   1.0000   1.0000   1.0000   1.0000   1.0000
     1.0000   1.0000   1.0000   1.0000   1.0000

          k = 0.1905 0.4399 0.0000 ( 14749 PWs)   bands (ev):

   -66.6438 -40.9818 -40.8077 -40.7853 -18.2953 -18.0461 -11.3037 -10.8759
    -9.7003  -9.3027  -8.5593  -7.5323  -6.5530

     occupation numbers 
     1.0000   1.0000   1.0000   1.0000   1.0000   1.0000   1.0000   1.0000
     1.0000   1.0000   1.0000   1.0000   1.0000

          k = 0.1905 0.4949 0.0000 ( 14738 PWs)   bands (ev):

   -66.6407 -41.0008 -40.8023 -40.8016 -18.1173 -17.9722 -11.3608 -11.1281
    -9.8378  -9.2138  -8.6073  -7.7460  -6.3810

     occupation numbers 
     1.0000   1.0000   1.0000   1.0000   1.0000   1.0000   1.0000   1.0000
     1.0000   1.0000   1.0000   1.0000   1.0000

          k = 0.1905 0.5499 0.0000 ( 14758 PWs)   bands (ev):

   -66.6391 -41.0106 -40.8114 -40.7984 -18.0203 -17.9319 -11.3844 -11.2600
    -9.9515  -9.1441  -8.6094  -7.8816  -6.2499

     occupation numbers 
     1.0000   1.0000   1.0000   1.0000   1.0000   1.0000   1.0000   1.0000
     1.0000   1.0000   1.0000   1.0000   1.0000

          k = 0.2381 0.4124 0.0000 ( 14762 PWs)   bands (ev):

   -66.6439 -40.9725 -40.8079 -40.7940 -18.3018 -18.0456 -11.2358 -10.8772
    -9.5903  -9.3252  -8.7781  -7.4894  -6.5664

     occupation numbers 
     1.0000   1.0000   1.0000   1.0000   1.0000   1.0000   1.0000   1.0000
     1.0000   1.0000   1.0000   1.0000   1.0000

          k = 0.2381 0.4674 0.0000 ( 14743 PWs)   bands (ev):

   -66.6406 -40.9833 -40.8221 -40.8013 -18.1142 -17.9639 -11.2135 -11.1643
    -9.6530  -9.2212  -9.0351  -7.7108  -6.3912

     occupation numbers 
     1.0000   1.0000   1.0000   1.0000   1.0000   1.0000   1.0000   1.0000
     1.0000   1.0000   1.0000   1.0000   1.0000

          k = 0.2381 0.5224 0.0000 ( 14764 PWs)   bands (ev):

   -66.6384 -40.9881 -40.8421 -40.7971 -17.9895 -17.9089 -11.3501 -11.1590
    -9.8431  -9.1074  -9.1045  -7.9043  -6.2104

     occupation numbers 
     1.0000   1.0000   1.0000   1.0000   1.0000   1.0000   1.0000   1.0000
     1.0000   1.0000   1.0000   1.0000   1.0000

          k = 0.2381 0.5774 0.0000 ( 14780 PWs)   bands (ev):

   -66.6377 -40.9892 -40.8495 -40.7957 -17.9458 -17.8895 -11.4143 -11.1264
    -9.9422  -9.1158  -9.0491  -7.9865  -6.1283

     occupation numbers 
     1.0000   1.0000   1.0000   1.0000   1.0000   1.0000   1.0000   1.0000
     1.0000   1.0000   1.0000   1.0000   1.0000

          k = 0.2857 0.4949 0.0000 ( 14734 PWs)   bands (ev):

   -66.6382 -40.9766 -40.8565 -40.7967 -17.9792 -17.9008 -11.3823 -11.0550
    -9.7318  -9.3787  -9.0883  -7.9130  -6.1958

     occupation numbers 
     1.0000   1.0000   1.0000   1.0000   1.0000   1.0000   1.0000   1.0000
     1.0000   1.0000   1.0000   1.0000   1.0000

          k = 0.2857 0.5499 0.0000 ( 14738 PWs)   bands (ev):

   -66.6370 -40.9673 -40.8803 -40.7943 -17.9071 -17.8662 -11.4989 -10.8844
    -9.9754  -9.4505  -8.9740  -8.0642  -6.0440

     occupation numbers 
     1.0000   1.0000   1.0000   1.0000   1.0000   1.0000   1.0000   1.0000
     1.0000   1.0000   1.0000   1.0000   1.0000

          k = 0.3333 0.5774 0.0000 ( 14760 PWs)   bands (ev):

   -66.6365 -40.9516 -40.9019 -40.7933 -17.8786 -17.8511 -11.5510 -10.6848
   -10.1610  -9.5346  -8.9084  -8.1397  -5.9683

     occupation numbers 
     1.0000   1.0000   1.0000   1.0000   1.0000   1.0000   1.0000   1.0000
     1.0000   1.0000   1.0000   1.0000   1.0000

     highest occupied level (ev):    -5.9683

!    total energy              =    -184.83183022 Ry
     estimated scf accuracy    <          9.9E-16 Ry

     convergence has been achieved in   6 iterations

     Forces acting on atoms (cartesian axes, Ry/au):

     atom    1 type  1   force =     0.00000000    0.00000000    0.00000000
     atom    2 type  2   force =    -0.00000000    0.00000000    0.00000011
     atom    3 type  2   force =     0.00000000    0.00000000   -0.00000011
     The non-local contrib.  to forces
     atom    1 type  1   force =     0.00000000   -0.00000000    0.00000000
     atom    2 type  2   force =     0.00000000    0.00000000   -0.25592264
     atom    3 type  2   force =     0.00000000    0.00000000    0.25592264
     The ionic contribution  to forces
     atom    1 type  1   force =     0.00000001    0.00000097    0.00000000
     atom    2 type  2   force =    -0.00000000   -0.00000048   46.86190166
     atom    3 type  2   force =    -0.00000000   -0.00000048  -46.86190166
     The local contribution  to forces
     atom    1 type  1   force =     0.00000000    0.00002380    0.00000000
     atom    2 type  2   force =    -0.00000001    0.00000001  -46.61016627
     atom    3 type  2   force =    -0.00000001    0.00000001   46.61016627
     The core correction contribution to forces
     atom    1 type  1   force =     0.00000000   -0.00000040   -0.00000000
     atom    2 type  2   force =     0.00000000   -0.00000000    0.00418732
     atom    3 type  2   force =     0.00000000   -0.00000000   -0.00418732
     The Hubbard contrib.    to forces
     atom    1 type  1   force =     0.00000000    0.00000000    0.00000000
     atom    2 type  2   force =     0.00000000    0.00000000    0.00000000
     atom    3 type  2   force =     0.00000000    0.00000000    0.00000000
     The SCF correction term to forces
     atom    1 type  1   force =    -0.00000000    0.00000000   -0.00000000
     atom    2 type  2   force =    -0.00000000   -0.00000000    0.00000004
     atom    3 type  2   force =    -0.00000000   -0.00000000   -0.00000004

     Total force =     0.000000     Total SCF correction =     0.000000
     SCF correction compared to forces is large: reduce conv_thr to get better values

     Entering Dynamics:    iteration =    12

     <vel(dt)|acc(dt)> =  -1.00000000

ATOMIC_POSITIONS (crystal)
Mo               0.3333333000        0.6666666000        0.5000000000    0   0   0
S                0.6666666670        0.3333333330        0.5735812426    0   0   1
S                0.6666666670        0.3333333330        0.4264187574    0   0   1



     Writing config-only to output data dir ./tmp/MoS2.save/ :
     XML data file
     NEW-OLD atomic charge density approx. for the potential

     total cpu time spent up to now is      432.9 secs

     per-process dynamical memory:    64.5 Mb

     Self-consistent Calculation

     iteration #  1     ecut=    80.00 Ry     beta= 0.20
     Davidson diagonalization with overlap

---- Real-time Memory Report at c_bands before calling an iterative solver
            88 MiB given to the printing process from OS
            63 MiB allocation reported by mallinfo(arena+hblkhd)
        244301 MiB available memory on the node where the printing process lives
------------------
     ethr =  1.00E-06,  avg # of iterations =  1.0

     Threshold (ethr) on eigenvalues was too large:
     Diagonalizing with lowered threshold

     Davidson diagonalization with overlap

---- Real-time Memory Report at c_bands before calling an iterative solver
            88 MiB given to the printing process from OS
            63 MiB allocation reported by mallinfo(arena+hblkhd)
        244301 MiB available memory on the node where the printing process lives
------------------
     ethr =  1.00E-13,  avg # of iterations =  1.0

     total cpu time spent up to now is      434.7 secs

     total energy              =    -184.83183022 Ry
     estimated scf accuracy    <          7.7E-15 Ry

     iteration #  2     ecut=    80.00 Ry     beta= 0.20
     Davidson diagonalization with overlap

---- Real-time Memory Report at c_bands before calling an iterative solver
            88 MiB given to the printing process from OS
            63 MiB allocation reported by mallinfo(arena+hblkhd)
        244301 MiB available memory on the node where the printing process lives
------------------
     ethr =  1.00E-13,  avg # of iterations =  1.0

     total cpu time spent up to now is      435.6 secs

     End of self-consistent calculation

          k = 0.0000 0.0000 0.0000 ( 14903 PWs)   bands (ev):

   -66.6868 -40.8920 -40.6290 -40.6290 -20.1838 -18.8200 -11.7313  -8.5914
    -8.5914  -7.8013  -7.4349  -7.4348  -6.0269

     occupation numbers 
     1.0000   1.0000   1.0000   1.0000   1.0000   1.0000   1.0000   1.0000
     1.0000   1.0000   1.0000   1.0000   1.0000

          k = 0.0000 0.0550 0.0000 ( 14887 PWs)   bands (ev):

   -66.6858 -40.8900 -40.6389 -40.6313 -20.1479 -18.8054 -11.6902  -8.6732
    -8.5537  -8.0203  -7.4938  -7.2669  -6.0395

     occupation numbers 
     1.0000   1.0000   1.0000   1.0000   1.0000   1.0000   1.0000   1.0000
     1.0000   1.0000   1.0000   1.0000   1.0000

          k = 0.0000 0.1100 0.0000 ( 14865 PWs)   bands (ev):

   -66.6829 -40.8844 -40.6673 -40.6377 -20.0418 -18.7623 -11.5727  -8.8965
    -8.4429  -8.3780  -7.6552  -7.0773  -6.0884

     occupation numbers 
     1.0000   1.0000   1.0000   1.0000   1.0000   1.0000   1.0000   1.0000
     1.0000   1.0000   1.0000   1.0000   1.0000

          k = 0.0000 0.1650 0.0000 ( 14863 PWs)   bands (ev):

   -66.6784 -40.8756 -40.7117 -40.6478 -19.8711 -18.6928 -11.3982  -9.2066
    -8.7604  -8.2668  -7.8836  -7.0090  -6.2024

     occupation numbers 
     1.0000   1.0000   1.0000   1.0000   1.0000   1.0000   1.0000   1.0000
     1.0000   1.0000   1.0000   1.0000   1.0000

          k = 0.0000 0.2199 0.0000 ( 14819 PWs)   bands (ev):

   -66.6727 -40.8643 -40.7678 -40.6606 -19.6446 -18.6010 -11.2100  -9.5307
    -9.1507  -8.1417  -8.0387  -7.0794  -6.4046

     occupation numbers 
     1.0000   1.0000   1.0000   1.0000   1.0000   1.0000   1.0000   1.0000
     1.0000   1.0000   1.0000   1.0000   1.0000

          k = 0.0000 0.2749 0.0000 ( 14799 PWs)   bands (ev):

   -66.6662 -40.8516 -40.8304 -40.6749 -19.3752 -18.4924 -11.0942  -9.7797
    -9.5409  -8.3999  -7.7783  -7.2436  -6.6666

     occupation numbers 
     1.0000   1.0000   1.0000   1.0000   1.0000   1.0000   1.0000   1.0000
     1.0000   1.0000   1.0000   1.0000   1.0000

          k = 0.0000 0.3299 0.0000 ( 14811 PWs)   bands (ev):

   -66.6595 -40.8937 -40.8385 -40.6896 -19.0805 -18.3749 -11.1491  -9.9192
    -9.8841  -8.6375  -7.5110  -7.4356  -6.8959

     occupation numbers 
     1.0000   1.0000   1.0000   1.0000   1.0000   1.0000   1.0000   1.0000
     1.0000   1.0000   1.0000   1.0000   1.0000

          k = 0.0000 0.3849 0.0000 ( 14770 PWs)   bands (ev):

   -66.6533 -40.9523 -40.8263 -40.7032 -18.7832 -18.2584 -11.3489 -10.2669
    -9.9123  -8.8403  -7.6082  -7.2653  -6.9890

     occupation numbers 
     1.0000   1.0000   1.0000   1.0000   1.0000   1.0000   1.0000   1.0000
     1.0000   1.0000   1.0000   1.0000   1.0000

          k = 0.0000 0.4399 0.0000 ( 14726 PWs)   bands (ev):

   -66.6481 -41.0011 -40.8160 -40.7146 -18.5123 -18.1547 -11.5848 -10.5596
    -9.9706  -8.9991  -7.7399  -7.0670  -6.9166

     occupation numbers 
     1.0000   1.0000   1.0000   1.0000   1.0000   1.0000   1.0000   1.0000
     1.0000   1.0000   1.0000   1.0000   1.0000

          k = 0.0000 0.4949 0.0000 ( 14720 PWs)   bands (ev):

   -66.6443 -41.0361 -40.8086 -40.7228 -18.3019 -18.0763 -11.7812 -10.7722
   -10.0564  -9.1078  -7.8256  -6.9320  -6.7581

     occupation numbers 
     1.0000   1.0000   1.0000   1.0000   1.0000   1.0000   1.0000   1.0000
     1.0000   1.0000   1.0000   1.0000   1.0000

          k = 0.0000 0.5499 0.0000 ( 14732 PWs)   bands (ev):

   -66.6423 -41.0543 -40.8047 -40.7271 -18.1857 -18.0338 -11.8920 -10.8842
   -10.1168  -9.1630  -7.8672  -6.8650  -6.6366

     occupation numbers 
     1.0000   1.0000   1.0000   1.0000   1.0000   1.0000   1.0000   1.0000
     1.0000   1.0000   1.0000   1.0000   1.0000

          k = 0.0476 0.0825 0.0000 ( 14879 PWs)   bands (ev):

   -66.6839 -40.8862 -40.6578 -40.6358 -20.0769 -18.7765 -11.6108  -8.8251
    -8.4800  -8.2737  -7.6198  -7.1061  -6.0702

     occupation numbers 
     1.0000   1.0000   1.0000   1.0000   1.0000   1.0000   1.0000   1.0000
     1.0000   1.0000   1.0000   1.0000   1.0000

          k = 0.0476 0.1375 0.0000 ( 14866 PWs)   bands (ev):

   -66.6802 -40.8790 -40.6938 -40.6445 -19.9385 -18.7202 -11.4637  -9.0895
    -8.6060  -8.3390  -7.8505  -6.9738  -6.1515

     occupation numbers 
     1.0000   1.0000   1.0000   1.0000   1.0000   1.0000   1.0000   1.0000
     1.0000   1.0000   1.0000   1.0000   1.0000

          k = 0.0476 0.1925 0.0000 ( 14822 PWs)   bands (ev):

   -66.6751 -40.8689 -40.7434 -40.6566 -19.7397 -18.6394 -11.2782  -9.4034
    -8.9654  -8.1431  -8.1294  -6.9596  -6.3109

     occupation numbers 
     1.0000   1.0000   1.0000   1.0000   1.0000   1.0000   1.0000   1.0000
     1.0000   1.0000   1.0000   1.0000   1.0000

          k = 0.0476 0.2474 0.0000 ( 14793 PWs)   bands (ev):

   -66.6689 -40.8569 -40.8019 -40.6709 -19.4915 -18.5389 -11.1172  -9.6868
    -9.3419  -8.4076  -7.9136  -7.0676  -6.5459

     occupation numbers 
     1.0000   1.0000   1.0000   1.0000   1.0000   1.0000   1.0000   1.0000
     1.0000   1.0000   1.0000   1.0000   1.0000

          k = 0.0476 0.3024 0.0000 ( 14818 PWs)   bands (ev):

   -66.6624 -40.8640 -40.8441 -40.6863 -19.2088 -18.4252 -11.0840  -9.8487
    -9.7267  -8.6523  -7.6834  -7.2492  -6.7854

     occupation numbers 
     1.0000   1.0000   1.0000   1.0000   1.0000   1.0000   1.0000   1.0000
     1.0000   1.0000   1.0000   1.0000   1.0000

          k = 0.0476 0.3574 0.0000 ( 14790 PWs)   bands (ev):

   -66.6559 -40.9242 -40.8314 -40.7012 -18.9117 -18.3074 -11.2240 -10.1000
    -9.8856  -8.8493  -7.4980  -7.4472  -6.9058

     occupation numbers 
     1.0000   1.0000   1.0000   1.0000   1.0000   1.0000   1.0000   1.0000
     1.0000   1.0000   1.0000   1.0000   1.0000

          k = 0.0476 0.4124 0.0000 ( 14761 PWs)   bands (ev):

   -66.6502 -40.9771 -40.8202 -40.7145 -18.6258 -18.1961 -11.4483 -10.4334
    -9.9176  -8.9974  -7.6226  -7.3644  -6.8476

     occupation numbers 
     1.0000   1.0000   1.0000   1.0000   1.0000   1.0000   1.0000   1.0000
     1.0000   1.0000   1.0000   1.0000   1.0000

          k = 0.0476 0.4674 0.0000 ( 14735 PWs)   bands (ev):

   -66.6457 -41.0185 -40.8114 -40.7249 -18.3829 -18.1037 -11.6644 -10.6976
    -9.9965  -9.0997  -7.7551  -7.2359  -6.6998

     occupation numbers 
     1.0000   1.0000   1.0000   1.0000   1.0000   1.0000   1.0000   1.0000
     1.0000   1.0000   1.0000   1.0000   1.0000

          k = 0.0476 0.5224 0.0000 ( 14722 PWs)   bands (ev):

   -66.6428 -41.0447 -40.8057 -40.7315 -18.2175 -18.0422 -11.8170 -10.8675
   -10.0784  -9.1597  -7.8362  -7.1351  -6.5579

     occupation numbers 
     1.0000   1.0000   1.0000   1.0000   1.0000   1.0000   1.0000   1.0000
     1.0000   1.0000   1.0000   1.0000   1.0000

          k = 0.0476 0.5774 0.0000 ( 14726 PWs)   bands (ev):

   -66.6418 -41.0537 -40.8038 -40.7337 -18.1584 -18.0206 -11.8721 -10.9261
   -10.1119  -9.1795  -7.8634  -7.0986  -6.4983

     occupation numbers 
     1.0000   1.0000   1.0000   1.0000   1.0000   1.0000   1.0000   1.0000
     1.0000   1.0000   1.0000   1.0000   1.0000

          k = 0.0952 0.1650 0.0000 ( 14831 PWs)   bands (ev):

   -66.6759 -40.8706 -40.7342 -40.6560 -19.7719 -18.6524 -11.3027  -9.3542
    -8.8737  -8.1835  -8.1804  -6.8807  -6.2787

     occupation numbers 
     1.0000   1.0000   1.0000   1.0000   1.0000   1.0000   1.0000   1.0000
     1.0000   1.0000   1.0000   1.0000   1.0000

          k = 0.0952 0.2199 0.0000 ( 14819 PWs)   bands (ev):

   -66.6704 -40.8598 -40.7848 -40.6711 -19.5512 -18.5626 -11.1333  -9.6223
    -9.1712  -8.5372  -8.0020  -6.8852  -6.4755

     occupation numbers 
     1.0000   1.0000   1.0000   1.0000   1.0000   1.0000   1.0000   1.0000
     1.0000   1.0000   1.0000   1.0000   1.0000

          k = 0.0952 0.2749 0.0000 ( 14797 PWs)   bands (ev):

   -66.6642 -40.8476 -40.8411 -40.6882 -19.2888 -18.4562 -11.0406  -9.8053
    -9.5235  -8.8255  -7.8395  -7.0012  -6.6933

     occupation numbers 
     1.0000   1.0000   1.0000   1.0000   1.0000   1.0000   1.0000   1.0000
     1.0000   1.0000   1.0000   1.0000   1.0000

          k = 0.0952 0.3299 0.0000 ( 14799 PWs)   bands (ev):

   -66.6578 -40.8981 -40.8351 -40.7057 -19.0022 -18.3409 -11.1066  -9.9188
    -9.8493  -9.0116  -7.7532  -7.1911  -6.8203

     occupation numbers 
     1.0000   1.0000   1.0000   1.0000   1.0000   1.0000   1.0000   1.0000
     1.0000   1.0000   1.0000   1.0000   1.0000

          k = 0.0952 0.3849 0.0000 ( 14775 PWs)   bands (ev):

   -66.6519 -40.9509 -40.8235 -40.7220 -18.7138 -18.2262 -11.2900 -10.3036
    -9.8457  -9.1180  -7.7286  -7.4052  -6.7915

     occupation numbers 
     1.0000   1.0000   1.0000   1.0000   1.0000   1.0000   1.0000   1.0000
     1.0000   1.0000   1.0000   1.0000   1.0000

          k = 0.0952 0.4399 0.0000 ( 14747 PWs)   bands (ev):

   -66.6469 -40.9949 -40.8137 -40.7357 -18.4520 -18.1238 -11.4959 -10.6306
    -9.9001  -9.1705  -7.6755  -7.6033  -6.6655

     occupation numbers 
     1.0000   1.0000   1.0000   1.0000   1.0000   1.0000   1.0000   1.0000
     1.0000   1.0000   1.0000   1.0000   1.0000

          k = 0.0952 0.4949 0.0000 ( 14735 PWs)   bands (ev):

   -66.6433 -41.0264 -40.8066 -40.7455 -18.2494 -18.0461 -11.6640 -10.8671
    -9.9959  -9.1896  -7.7553  -7.5960  -6.5124

     occupation numbers 
     1.0000   1.0000   1.0000   1.0000   1.0000   1.0000   1.0000   1.0000
     1.0000   1.0000   1.0000   1.0000   1.0000

          k = 0.0952 0.5499 0.0000 ( 14720 PWs)   bands (ev):

   -66.6414 -41.0428 -40.8029 -40.7507 -18.1379 -18.0039 -11.7580 -10.9911
   -10.0651  -9.1931  -7.8383  -7.5439  -6.4027

     occupation numbers 
     1.0000   1.0000   1.0000   1.0000   1.0000   1.0000   1.0000   1.0000
     1.0000   1.0000   1.0000   1.0000   1.0000

          k = 0.1429 0.2474 0.0000 ( 14805 PWs)   bands (ev):

   -66.6648 -40.8488 -40.8322 -40.6899 -19.3160 -18.4667 -11.0254  -9.7858
    -9.4018  -8.9491  -7.8997  -6.8902  -6.6595

     occupation numbers 
     1.0000   1.0000   1.0000   1.0000   1.0000   1.0000   1.0000   1.0000
     1.0000   1.0000   1.0000   1.0000   1.0000

          k = 0.1429 0.3024 0.0000 ( 14800 PWs)   bands (ev):

   -66.6588 -40.8816 -40.8371 -40.7109 -19.0489 -18.3578 -11.0341  -9.8226
    -9.7563  -9.1909  -7.9080  -7.0032  -6.7765

     occupation numbers 
     1.0000   1.0000   1.0000   1.0000   1.0000   1.0000   1.0000   1.0000
     1.0000   1.0000   1.0000   1.0000   1.0000

          k = 0.1429 0.3574 0.0000 ( 14795 PWs)   bands (ev):

   -66.6529 -40.9291 -40.8256 -40.7319 -18.7693 -18.2443 -11.1590 -10.1809
    -9.7753  -9.2743  -8.0172  -7.1968  -6.7710

     occupation numbers 
     1.0000   1.0000   1.0000   1.0000   1.0000   1.0000   1.0000   1.0000
     1.0000   1.0000   1.0000   1.0000   1.0000

          k = 0.1429 0.4124 0.0000 ( 14779 PWs)   bands (ev):

   -66.6477 -40.9708 -40.8153 -40.7508 -18.5021 -18.1366 -11.3240 -10.5686
    -9.7759  -9.2812  -8.1021  -7.4238  -6.6739

     occupation numbers 
     1.0000   1.0000   1.0000   1.0000   1.0000   1.0000   1.0000   1.0000
     1.0000   1.0000   1.0000   1.0000   1.0000

          k = 0.1429 0.4674 0.0000 ( 14755 PWs)   bands (ev):

   -66.6436 -41.0032 -40.8073 -40.7657 -18.2768 -18.0467 -11.4715 -10.8721
    -9.8678  -9.2474  -8.1042  -7.6383  -6.5245

     occupation numbers 
     1.0000   1.0000   1.0000   1.0000   1.0000   1.0000   1.0000   1.0000
     1.0000   1.0000   1.0000   1.0000   1.0000

          k = 0.1429 0.5224 0.0000 ( 14748 PWs)   bands (ev):

   -66.6410 -41.0237 -40.8021 -40.7753 -18.1246 -17.9866 -11.5709 -11.0649
    -9.9763  -9.2035  -8.0740  -7.7959  -6.3755

     occupation numbers 
     1.0000   1.0000   1.0000   1.0000   1.0000   1.0000   1.0000   1.0000
     1.0000   1.0000   1.0000   1.0000   1.0000

          k = 0.1429 0.5774 0.0000 ( 14726 PWs)   bands (ev):

   -66.6401 -41.0308 -40.8003 -40.7785 -18.0706 -17.9654 -11.6059 -11.1310
   -10.0219  -9.1831  -8.0597  -7.8551  -6.3103

     occupation numbers 
     1.0000   1.0000   1.0000   1.0000   1.0000   1.0000   1.0000   1.0000
     1.0000   1.0000   1.0000   1.0000   1.0000

          k = 0.1905 0.3299 0.0000 ( 14785 PWs)   bands (ev):

   -66.6533 -40.9203 -40.8263 -40.7367 -18.7883 -18.2504 -11.1073 -10.1224
    -9.7435  -9.3502  -8.1303  -7.1109  -6.7669

     occupation numbers 
     1.0000   1.0000   1.0000   1.0000   1.0000   1.0000   1.0000   1.0000
     1.0000   1.0000   1.0000   1.0000   1.0000

          k = 0.1905 0.3849 0.0000 ( 14761 PWs)   bands (ev):

   -66.6481 -40.9544 -40.8162 -40.7625 -18.5284 -18.1428 -11.2124 -10.5267
    -9.6657  -9.3623  -8.3920  -7.3027  -6.6893

     occupation numbers 
     1.0000   1.0000   1.0000   1.0000   1.0000   1.0000   1.0000   1.0000
     1.0000   1.0000   1.0000   1.0000   1.0000

          k = 0.1905 0.4399 0.0000 ( 14749 PWs)   bands (ev):

   -66.6438 -40.9818 -40.8077 -40.7853 -18.2953 -18.0461 -11.3037 -10.8759
    -9.7003  -9.3027  -8.5593  -7.5323  -6.5530

     occupation numbers 
     1.0000   1.0000   1.0000   1.0000   1.0000   1.0000   1.0000   1.0000
     1.0000   1.0000   1.0000   1.0000   1.0000

          k = 0.1905 0.4949 0.0000 ( 14738 PWs)   bands (ev):

   -66.6407 -41.0008 -40.8023 -40.8016 -18.1173 -17.9722 -11.3608 -11.1281
    -9.8378  -9.2138  -8.6073  -7.7460  -6.3810

     occupation numbers 
     1.0000   1.0000   1.0000   1.0000   1.0000   1.0000   1.0000   1.0000
     1.0000   1.0000   1.0000   1.0000   1.0000

          k = 0.1905 0.5499 0.0000 ( 14758 PWs)   bands (ev):

   -66.6391 -41.0106 -40.8114 -40.7984 -18.0203 -17.9319 -11.3844 -11.2600
    -9.9515  -9.1441  -8.6094  -7.8816  -6.2499

     occupation numbers 
     1.0000   1.0000   1.0000   1.0000   1.0000   1.0000   1.0000   1.0000
     1.0000   1.0000   1.0000   1.0000   1.0000

          k = 0.2381 0.4124 0.0000 ( 14762 PWs)   bands (ev):

   -66.6439 -40.9725 -40.8079 -40.7940 -18.3018 -18.0456 -11.2358 -10.8772
    -9.5903  -9.3252  -8.7781  -7.4894  -6.5664

     occupation numbers 
     1.0000   1.0000   1.0000   1.0000   1.0000   1.0000   1.0000   1.0000
     1.0000   1.0000   1.0000   1.0000   1.0000

          k = 0.2381 0.4674 0.0000 ( 14743 PWs)   bands (ev):

   -66.6406 -40.9833 -40.8221 -40.8013 -18.1142 -17.9639 -11.2135 -11.1643
    -9.6530  -9.2212  -9.0351  -7.7108  -6.3912

     occupation numbers 
     1.0000   1.0000   1.0000   1.0000   1.0000   1.0000   1.0000   1.0000
     1.0000   1.0000   1.0000   1.0000   1.0000

          k = 0.2381 0.5224 0.0000 ( 14764 PWs)   bands (ev):

   -66.6384 -40.9881 -40.8421 -40.7971 -17.9895 -17.9089 -11.3501 -11.1590
    -9.8431  -9.1074  -9.1045  -7.9043  -6.2104

     occupation numbers 
     1.0000   1.0000   1.0000   1.0000   1.0000   1.0000   1.0000   1.0000
     1.0000   1.0000   1.0000   1.0000   1.0000

          k = 0.2381 0.5774 0.0000 ( 14780 PWs)   bands (ev):

   -66.6377 -40.9892 -40.8495 -40.7957 -17.9458 -17.8895 -11.4143 -11.1264
    -9.9422  -9.1158  -9.0491  -7.9865  -6.1283

     occupation numbers 
     1.0000   1.0000   1.0000   1.0000   1.0000   1.0000   1.0000   1.0000
     1.0000   1.0000   1.0000   1.0000   1.0000

          k = 0.2857 0.4949 0.0000 ( 14734 PWs)   bands (ev):

   -66.6382 -40.9766 -40.8565 -40.7967 -17.9792 -17.9008 -11.3823 -11.0550
    -9.7318  -9.3787  -9.0883  -7.9130  -6.1958

     occupation numbers 
     1.0000   1.0000   1.0000   1.0000   1.0000   1.0000   1.0000   1.0000
     1.0000   1.0000   1.0000   1.0000   1.0000

          k = 0.2857 0.5499 0.0000 ( 14738 PWs)   bands (ev):

   -66.6370 -40.9673 -40.8803 -40.7943 -17.9071 -17.8662 -11.4989 -10.8844
    -9.9754  -9.4505  -8.9740  -8.0642  -6.0440

     occupation numbers 
     1.0000   1.0000   1.0000   1.0000   1.0000   1.0000   1.0000   1.0000
     1.0000   1.0000   1.0000   1.0000   1.0000

          k = 0.3333 0.5774 0.0000 ( 14760 PWs)   bands (ev):

   -66.6365 -40.9516 -40.9019 -40.7933 -17.8786 -17.8511 -11.5510 -10.6848
   -10.1610  -9.5346  -8.9084  -8.1397  -5.9683

     occupation numbers 
     1.0000   1.0000   1.0000   1.0000   1.0000   1.0000   1.0000   1.0000
     1.0000   1.0000   1.0000   1.0000   1.0000

     highest occupied level (ev):    -5.9683

!    total energy              =    -184.83183022 Ry
     estimated scf accuracy    <          8.6E-16 Ry

     convergence has been achieved in   2 iterations

     Forces acting on atoms (cartesian axes, Ry/au):

     atom    1 type  1   force =     0.00000000   -0.00000000    0.00000000
     atom    2 type  2   force =     0.00000000    0.00000000   -0.00000001
     atom    3 type  2   force =     0.00000000   -0.00000000    0.00000001
     The non-local contrib.  to forces
     atom    1 type  1   force =     0.00000000    0.00000000    0.00000000
     atom    2 type  2   force =    -0.00000000   -0.00000000   -0.25592253
     atom    3 type  2   force =     0.00000000    0.00000000    0.25592253
     The ionic contribution  to forces
     atom    1 type  1   force =     0.00000001    0.00000097    0.00000000
     atom    2 type  2   force =    -0.00000000   -0.00000048   46.86190197
     atom    3 type  2   force =    -0.00000000   -0.00000048  -46.86190197
     The local contribution  to forces
     atom    1 type  1   force =     0.00000000    0.00002380    0.00000000
     atom    2 type  2   force =    -0.00000001    0.00000001  -46.61016678
     atom    3 type  2   force =    -0.00000001    0.00000001   46.61016678
     The core correction contribution to forces
     atom    1 type  1   force =     0.00000000   -0.00000040   -0.00000000
     atom    2 type  2   force =     0.00000000   -0.00000000    0.00418731
     atom    3 type  2   force =     0.00000000   -0.00000000   -0.00418731
     The Hubbard contrib.    to forces
     atom    1 type  1   force =     0.00000000    0.00000000    0.00000000
     atom    2 type  2   force =     0.00000000    0.00000000    0.00000000
     atom    3 type  2   force =     0.00000000    0.00000000    0.00000000
     The SCF correction term to forces
     atom    1 type  1   force =    -0.00000000    0.00000000   -0.00000000
     atom    2 type  2   force =    -0.00000000   -0.00000000    0.00000003
     atom    3 type  2   force =    -0.00000000   -0.00000000   -0.00000003

     Total force =     0.000000     Total SCF correction =     0.000000
     SCF correction compared to forces is large: reduce conv_thr to get better values

     Damped Dynamics: convergence achieved in  12 steps

     End of damped dynamics calculation

     Final energy =    -184.8318302216 Ry

Begin final coordinates
     new unit-cell volume =   1222.98389 a.u.^3 (   181.22751 Ang^3 )
     density =      1.46677 g/cm^3

CELL_PARAMETERS (alat=  5.94175933)
   1.000000000   0.000000000   0.000000000
  -0.500000000   0.866025404   0.000000000
   0.000000000   0.000000000   6.732012820

ATOMIC_POSITIONS (crystal)
Mo               0.3333333000        0.6666666000        0.5000000000    0   0   0
S                0.6666666670        0.3333333330        0.5735812426    0   0   1
S                0.6666666670        0.3333333330        0.4264187574    0   0   1
End final coordinates



     Writing all to output data dir ./tmp/MoS2.save/ :
     XML data file, charge density, pseudopotentials, collected wavefunctions

     init_run     :      1.53s CPU      1.86s WALL (       1 calls)
     electrons    :    387.97s CPU    411.28s WALL (      13 calls)
     update_pot   :      0.10s CPU      0.12s WALL (      12 calls)
     forces       :      1.05s CPU      1.09s WALL (      13 calls)

     Called by init_run:
     wfcinit      :      0.45s CPU      0.51s WALL (       1 calls)
     wfcinit:atom :      0.01s CPU      0.01s WALL (      48 calls)
     wfcinit:wfcr :      0.41s CPU      0.47s WALL (      48 calls)
     potinit      :      0.01s CPU      0.01s WALL (       1 calls)
     hinit0       :      0.68s CPU      0.73s WALL (       1 calls)

     Called by electrons:
     c_bands      :    332.35s CPU    353.73s WALL (     371 calls)
     sum_band     :     51.79s CPU     52.88s WALL (     371 calls)
     v_of_rho     :      2.37s CPU      2.40s WALL (     372 calls)
     v_h          :      0.15s CPU      0.15s WALL (     372 calls)
     v_xc         :      2.30s CPU      2.33s WALL (     385 calls)
     mix_rho      :      0.72s CPU      0.73s WALL (     371 calls)

     Called by c_bands:
     init_us_2    :      7.70s CPU      8.26s WALL (   36288 calls)
     cegterg      :    309.54s CPU    319.11s WALL (   17808 calls)

     Called by sum_band:
     sum_band:wei :      0.00s CPU      0.00s WALL (     371 calls)
     sum_band:loo :     51.21s CPU     52.30s WALL (     371 calls)
     sum_band:buf :      0.25s CPU      0.26s WALL (   17808 calls)
     sum_band:ini :      3.69s CPU      3.77s WALL (   17808 calls)

     Called by *egterg:
     cdiaghg      :     21.63s CPU     22.13s WALL (   56944 calls)
     cegterg:over :     10.57s CPU     10.79s WALL (   40288 calls)
     cegterg:upda :      2.77s CPU      2.83s WALL (   40288 calls)
     cegterg:last :      3.34s CPU      3.41s WALL (   30667 calls)
     h_psi        :    262.43s CPU    271.13s WALL (   58144 calls)
     g_psi        :      0.67s CPU      0.68s WALL (   40288 calls)

     Called by h_psi:
     h_psi:calbec :     15.08s CPU     15.40s WALL (   58144 calls)
     vloc_psi     :    237.83s CPU    246.02s WALL (   58144 calls)
                                        0.00s GPU  (   58144 calls)
     add_vuspsi   :      8.63s CPU      8.82s WALL (   58144 calls)

     General routines
     calbec       :     15.55s CPU     15.90s WALL (   60640 calls)
     fft          :      2.77s CPU      2.84s WALL (    3874 calls)
     ffts         :      0.15s CPU      0.15s WALL (     371 calls)
     fftw         :    268.15s CPU    276.77s WALL ( 1380954 calls)

     Parallel routines

     PWSCF        :   6m34.10s CPU   7m16.89s WALL


   This run was terminated on:   9:21:44  13Mar2026            

=------------------------------------------------------------------------------=
   JOB DONE.
=------------------------------------------------------------------------------=
